
                                 *****************
                                 * O   R   C   A *
                                 *****************

                                            #,                                       
                                            ###                                      
                                            ####                                     
                                            #####                                    
                                            ######                                   
                                           ########,                                 
                                     ,,################,,,,,                         
                               ,,#################################,,                 
                          ,,##########################################,,             
                       ,#########################################, ''#####,          
                    ,#############################################,,   '####,        
                  ,##################################################,,,,####,       
                ,###########''''           ''''###############################       
              ,#####''   ,,,,##########,,,,          '''####'''          '####       
            ,##' ,,,,###########################,,,                        '##       
           ' ,,###''''                  '''############,,,                           
         ,,##''                                '''############,,,,        ,,,,,,###''
      ,#''                                            '''#######################'''  
     '                                                          ''''####''''         
             ,#######,   #######,   ,#######,      ##                                
            ,#'     '#,  ##    ##  ,#'     '#,    #''#        ######   ,####,        
            ##       ##  ##   ,#'  ##            #'  '#       #        #'  '#        
            ##       ##  #######   ##           ,######,      #####,   #    #        
            '#,     ,#'  ##    ##  '#,     ,#' ,#      #,         ##   #,  ,#        
             '#######'   ##     ##  '#######'  #'      '#     #####' # '####'        



                  #######################################################
                  #                        -***-                        #
                  #          Department of theory and spectroscopy      #
                  #    Directorship and core code : Frank Neese         #
                  #        Max Planck Institute fuer Kohlenforschung    #
                  #                Kaiser Wilhelm Platz 1               #
                  #                 D-45470 Muelheim/Ruhr               #
                  #                      Germany                        #
                  #                                                     #
                  #                  All rights reserved                #
                  #                        -***-                        #
                  #######################################################


                         Program Version 5.0.4 -  RELEASE  -


 With contributions from (in alphabetic order):
   Daniel Aravena         : Magnetic Suceptibility
   Michael Atanasov       : Ab Initio Ligand Field Theory (pilot matlab implementation)
   Alexander A. Auer      : GIAO ZORA, VPT2 properties, NMR spectrum
   Ute Becker             : Parallelization
   Giovanni Bistoni       : ED, misc. LED, open-shell LED, HFLD
   Martin Brehm           : Molecular dynamics
   Dmytro Bykov           : SCF Hessian
   Vijay G. Chilkuri      : MRCI spin determinant printing, contributions to CSF-ICE
   Dipayan Datta          : RHF DLPNO-CCSD density
   Achintya Kumar Dutta   : EOM-CC, STEOM-CC
   Dmitry Ganyushin       : Spin-Orbit,Spin-Spin,Magnetic field MRCI
   Miquel Garcia          : C-PCM and meta-GGA Hessian, CC/C-PCM, Gaussian charge scheme
   Yang Guo               : DLPNO-NEVPT2, F12-NEVPT2, CIM, IAO-localization
   Andreas Hansen         : Spin unrestricted coupled pair/coupled cluster methods
   Benjamin Helmich-Paris : MC-RPA, TRAH-SCF, COSX integrals
   Lee Huntington         : MR-EOM, pCC
   Robert Izsak           : Overlap fitted RIJCOSX, COSX-SCS-MP3, EOM
   Marcus Kettner         : VPT2
   Christian Kollmar      : KDIIS, OOCD, Brueckner-CCSD(T), CCSD density, CASPT2, CASPT2-K
   Simone Kossmann        : Meta GGA functionals, TD-DFT gradient, OOMP2, MP2 Hessian
   Martin Krupicka        : Initial AUTO-CI
   Lucas Lang             : DCDCAS
   Marvin Lechner         : AUTO-CI (C++ implementation), FIC-MRCC
   Dagmar Lenk            : GEPOL surface, SMD
   Dimitrios Liakos       : Extrapolation schemes; Compound Job, initial MDCI parallelization
   Dimitrios Manganas     : Further ROCIS development; embedding schemes
   Dimitrios Pantazis     : SARC Basis sets
   Anastasios Papadopoulos: AUTO-CI, single reference methods and gradients
   Taras Petrenko         : DFT Hessian,TD-DFT gradient, ASA, ECA, R-Raman, ABS, FL, XAS/XES, NRVS
   Peter Pinski           : DLPNO-MP2, DLPNO-MP2 Gradient
   Christoph Reimann      : Effective Core Potentials
   Marius Retegan         : Local ZFS, SOC
   Christoph Riplinger    : Optimizer, TS searches, QM/MM, DLPNO-CCSD(T), (RO)-DLPNO pert. Triples
   Tobias Risthaus        : Range-separated hybrids, TD-DFT gradient, RPA, STAB
   Michael Roemelt        : Original ROCIS implementation
   Masaaki Saitow         : Open-shell DLPNO-CCSD energy and density
   Barbara Sandhoefer     : DKH picture change effects
   Avijit Sen             : IP-ROCIS
   Kantharuban Sivalingam : CASSCF convergence, NEVPT2, FIC-MRCI
   Bernardo de Souza      : ESD, SOC TD-DFT
   Georgi Stoychev        : AutoAux, RI-MP2 NMR, DLPNO-MP2 response
   Willem Van den Heuvel  : Paramagnetic NMR
   Boris Wezisla          : Elementary symmetry handling
   Frank Wennmohs         : Technical directorship


 We gratefully acknowledge several colleagues who have allowed us to
 interface, adapt or use parts of their codes:
   Stefan Grimme, W. Hujo, H. Kruse, P. Pracht,  : VdW corrections, initial TS optimization,
                  C. Bannwarth, S. Ehlert          DFT functionals, gCP, sTDA/sTD-DF
   Ed Valeev, F. Pavosevic, A. Kumar             : LibInt (2-el integral package), F12 methods
   Garnet Chan, S. Sharma, J. Yang, R. Olivares  : DMRG
   Ulf Ekstrom                                   : XCFun DFT Library
   Mihaly Kallay                                 : mrcc  (arbitrary order and MRCC methods)
   Jiri Pittner, Ondrej Demel                    : Mk-CCSD
   Frank Weinhold                                : gennbo (NPA and NBO analysis)
   Christopher J. Cramer and Donald G. Truhlar   : smd solvation model
   Lars Goerigk                                  : TD-DFT with DH, B97 family of functionals
   V. Asgeirsson, H. Jonsson                     : NEB implementation
   FAccTs GmbH                                   : IRC, NEB, NEB-TS, DLPNO-Multilevel, CI-OPT
                                                   MM, QMMM, 2- and 3-layer-ONIOM, Crystal-QMMM,
                                                   LR-CPCM, SF, NACMEs, symmetry and pop. for TD-DFT,
                                                   nearIR, NL-DFT gradient (VV10), updates on ESD,
                                                   ML-optimized integration grids
   S Lehtola, MJT Oliveira, MAL Marques          : LibXC Library
   Liviu Ungur et al                             : ANISO software


 Your calculation uses the libint2 library for the computation of 2-el integrals
 For citations please refer to: http://libint.valeyev.net

 Your ORCA version has been built with support for libXC version: 5.1.0
 For citations please refer to: https://tddft.org/programs/libxc/

 This ORCA versions uses:
   CBLAS   interface :  Fast vector & matrix operations
   LAPACKE interface :  Fast linear algebra routines
   SCALAPACK package :  Parallel linear algebra routines
   Shared memory     :  Shared parallel matrices
   BLAS/LAPACK       :  OpenBLAS 0.3.15  USE64BITINT DYNAMIC_ARCH NO_AFFINITY Haswell SINGLE_THREADED
        Core in use  :  Haswell
   Copyright (c) 2011-2014, The OpenBLAS Project


Your calculation utilizes the atom-pairwise dispersion correction
with the Becke-Johnson damping scheme (D3BJ)
Cite in your paper:
S.Grimme, S.Ehrlich, L.Goerigk, J Comput Chem, (2011), 32, 1456–1465 
S.Grimme, J.Antony, S.Ehrlich and H.Krieg, J.Chem.Phys., 132, (2010), 154104 
   

XCFun DFT library Copyright 2009-2010 Ulf Ekstrom and contributors.
See http://admol.org/xcfun for more information.
This is free software; see the source code for copying conditions.
There is ABSOLUTELY NO WARRANTY; not even for MERCHANTABILITY or FITNESS FOR A PARTICULAR PURPOSE.
For details see the documentation.
Scientific users of this library should cite U. Ekstrom, L. Visscher, R. Bast, A. J. Thorvaldsen and K. Ruud;
J.Chem.Theor.Comp. 2010, DOI: 10.1021/ct100117s
XCFun Version 0.99 

================================================================================

----- Orbital basis set information -----
Your calculation utilizes the basis: def2-TZVPPD
   F. Weigend and R. Ahlrichs, Phys. Chem. Chem. Phys. 7, 3297 (2005).
   D. Rappoport and F. Furche, J. Chem. Phys. 133 134105 (2010).

----- AuxJ basis set information -----
Your calculation utilizes the auxiliary basis: def2/J
   F. Weigend, Phys. Chem. Chem. Phys. 8, 1057 (2006).

================================================================================
                                        WARNINGS
                       Please study these warnings very carefully!
================================================================================

INFO   : Checking CIS options ...

WARNING: CIS/ROCIS methods need fully converged wavefunctions
  ===> : Setting SCFConvForced true
         You can overwrite this default with %scf ConvForced false 


INFO   : the flag for use of the SHARK integral package has been found!

================================================================================
                                       INPUT FILE
================================================================================
NAME = 14/14.inp
|  1> ! CAM-B3LYP D3BJ def2-tzvppd CPCM(Acetonitrile) Defgrid3
|  2> %TDDFT
|  3>    NROOTS   30 end
|  4> %maxcore 10000
|  5> %pal nprocs 24
|  6> end
|  7> *xyz 0 1
|  8> C           -6.80473274207259        1.04570795767411       -0.90900491906377
|  9> C           -5.31221884377646        1.21247935830708       -0.64903746502511
| 10> C           -4.39519067089593        0.05828224210623       -1.13478462620736
| 11> C           -5.00965821342434       -1.35378446560922       -1.08287251914035
| 12> C           -4.02986877839475       -2.41814062973156       -1.57047764892185
| 13> C           -3.95811764216517        0.35285542246850       -2.54747390372089
| 14> C           -4.75291416344860        0.41064529396687       -3.67315323055275
| 15> C           -4.18385356403858        0.75835113963410       -4.88832309658559
| 16> C           -2.83404335372796        1.05392136483583       -4.95495851599354
| 17> C           -2.02826319895640        0.97502683536521       -3.83019723892588
| 18> C           -2.57889523388409        0.59722827592625       -2.61160910156318
| 19> C           -2.01541953413189        0.39808111854547       -1.27091343616638
| 20> C           -3.08058874390280        0.11677599776254       -0.38483591581878
| 21> C           -2.83255825597598       -0.08651445068622        0.96410145516412
| 22> C           -1.50171126457147       -0.04935714521849        1.44959437792892
| 23> C           -0.44460530621462        0.17858860493154        0.57790612936768
| 24> C           -0.71318510870588        0.39369719642961       -0.79593585397403
| 25> C            0.57365937960903        0.56034271491341       -1.57532156919304
| 26> C            0.74214883733009       -0.53276621365311       -2.64637895284867
| 27> C            0.61518903904139       -1.93235366234544       -2.05070400120477
| 28> C            0.66293299814036        2.02444428636082       -2.08334186423420
| 29> C            1.62703969155500        2.28057977480014       -3.23525973632035
| 30> C            1.60980880500801        0.36349936117465       -0.50043878026814
| 31> C            2.97395308613056        0.34587884696705       -0.67015315409715
| 32> C            3.80471239870849        0.19016281676001        0.43970124749663
| 33> N            5.19489871579453        0.13822580035496        0.27855761854809
| 34> C            6.03210195900152        0.74768491604341        1.21747002933372
| 35> C            7.24771491562526        0.16218870191928        1.57249720856712
| 36> C            8.07190957099054        0.77375987959780        2.49693794224030
| 37> C            7.69835939734893        1.96935729412251        3.08927577664452
| 38> C            6.48923364766291        2.55198976096388        2.74558828755730
| 39> C            5.66195450505231        1.95243170772229        1.81606354188197
| 40> C            5.73650086066427       -0.54559104342074       -0.81478773618830
| 41> C            6.88816955291807       -0.07621477342449       -1.44701403564276
| 42> C            7.41855079582802       -0.75855359519243       -2.52477075054352
| 43> C            6.80868884332780       -1.90921434375229       -2.99772368975058
| 44> C            5.66080001663309       -2.37639401022141       -2.37826674320958
| 45> C            5.12871287742020       -1.70661504389906       -1.29397109066235
| 46> C            3.22452682100308        0.08354258852060        1.70097309998548
| 47> C            1.85120463360862        0.08923722017125        1.86174313500434
| 48> C            1.01176027861144        0.20230495696360        0.75942394564997
| 49> C           -1.48326003320199       -0.32767855841663        2.93741394795705
| 50> C           -0.96700329889398        0.87700488781212        3.75105409848654
| 51> C           -1.79535404880729        2.13673334823540        3.51574148837603
| 52> C           -0.73656232956640       -1.63437471159308        3.27580611451662
| 53> C           -1.31132733768244       -2.83833033855878        2.53552115093716
| 54> C           -2.94468167494965       -0.51879749155199        3.24291735330532
| 55> C           -3.50126633284833       -0.79630102951543        4.47369501159230
| 56> C           -4.87720399975332       -0.92453179508589        4.57769009669598
| 57> C           -5.66720001644379       -0.76396127852433        3.45264469610754
| 58> C           -5.10773791615133       -0.48602430375202        2.21536740859519
| 59> C           -3.72843080065720       -0.36861736300490        2.09241387975154
| 60> H           -7.20453009497290        0.16843108359046       -0.40642163421714
| 61> H           -7.01556801237883        0.96159262096040       -1.97105388530139
| 62> H           -7.33186673601869        1.91980082013692       -0.53155719862286
| 63> H           -5.15391792607976        1.36906783282081        0.41805846856700
| 64> H           -4.97077046152722        2.12346233454016       -1.14970924414157
| 65> H           -5.89720053297895       -1.37520407847102       -1.71640246406744
| 66> H           -5.30510891074406       -1.60914388036217       -0.06798265659201
| 67> H           -3.71382393613779       -2.22012250494925       -2.59253981246178
| 68> H           -3.14531606315570       -2.44373970229153       -0.93715080474942
| 69> H           -4.50039576631685       -3.39831061425624       -1.53925809110718
| 70> H           -5.80740856766138        0.18643077143661       -3.62073133062255
| 71> H           -4.79489534132961        0.80757572720494       -5.77773946317320
| 72> H           -2.39552308337452        1.34709078425830       -5.89810910936731
| 73> H           -0.98856352594605        1.22508056744730       -3.93786885328589
| 74> H            1.72807955131772       -0.43135742474466       -3.10161399906195
| 75> H           -0.00828067089603       -0.42945657250059       -3.42611778621182
| 76> H            0.76478934991840       -2.68103335721990       -2.82525949262847
| 77> H            1.35444690081815       -2.09244365603402       -1.26884936420890
| 78> H           -0.37364512582494       -2.07784556621463       -1.62080688908661
| 79> H            0.96527317121276        2.63952165398808       -1.23051991588804
| 80> H           -0.33256847482076        2.36371620900401       -2.37023035316974
| 81> H            1.60568919498595        3.33847773230517       -3.48968098677420
| 82> H            1.35089569551453        1.71503176320579       -4.12167807618451
| 83> H            2.64650788282412        2.02249601742326       -2.96385444931184
| 84> H            3.41746428380928        0.43968057374904       -1.64948125779465
| 85> H            7.53787301350300       -0.77523693961221        1.12078795961761
| 86> H            9.00942120361922        0.30808467593577        2.76281983933729
| 87> H            8.34439773609953        2.44296747543101        3.81234196715299
| 88> H            6.19104687077106        3.48620250899768        3.19794893574999
| 89> H            4.72406053745107        2.41376336288889        1.54346634953821
| 90> H            7.36103898557565        0.82624257554150       -1.08796394983210
| 91> H            8.31057954620276       -0.38308718808924       -3.00407102535969
| 92> H            7.22516902674309       -2.43784856873709       -3.84130594947323
| 93> H            5.17997727528825       -3.27500736873475       -2.73524646596044
| 94> H            4.24025987141803       -2.08044390274383       -0.80655169625196
| 95> H            3.86079803980826       -0.02143965201941        2.56779083490375
| 96> H            1.47671911661888       -0.00471123644472        2.86534442761613
| 97> H            0.06338870365715        1.09942106596437        3.48522758894710
| 98> H           -0.99462214012209        0.61753118332345        4.81168393836134
| 99> H           -1.38392627797181        2.96413005643409        4.08945373991543
|100> H           -2.82946633899350        1.98895980593619        3.81885262059146
|101> H           -1.78239491999701        2.40834715527295        2.46214012210367
|102> H            0.31552476589843       -1.55041847560951        3.01639723627267
|103> H           -0.80700671741013       -1.80372052640885        4.35249860982134
|104> H           -1.23833463391617       -2.69246798400362        1.45966084345549
|105> H           -0.75630159673404       -3.73619008680819        2.79766645321275
|106> H           -2.35746489037446       -2.99299329555929        2.79042048214943
|107> H           -2.87797174590834       -0.91033302256260        5.34888499194043
|108> H           -5.33158387995303       -1.14285536813644        5.53309471784257
|109> H           -6.74085796071999       -0.85443962473947        3.53597552228566
|110> H           -5.77276361061671       -0.36015218466889        1.38085008970936
|111> *
|112> 
|113>                          ****END OF INPUT****
================================================================================

                       ****************************
                       * Single Point Calculation *
                       ****************************

---------------------------------
CARTESIAN COORDINATES (ANGSTROEM)
---------------------------------
  C     -6.804733    1.045708   -0.909005
  C     -5.312219    1.212479   -0.649037
  C     -4.395191    0.058282   -1.134785
  C     -5.009658   -1.353784   -1.082873
  C     -4.029869   -2.418141   -1.570478
  C     -3.958118    0.352855   -2.547474
  C     -4.752914    0.410645   -3.673153
  C     -4.183854    0.758351   -4.888323
  C     -2.834043    1.053921   -4.954959
  C     -2.028263    0.975027   -3.830197
  C     -2.578895    0.597228   -2.611609
  C     -2.015420    0.398081   -1.270913
  C     -3.080589    0.116776   -0.384836
  C     -2.832558   -0.086514    0.964101
  C     -1.501711   -0.049357    1.449594
  C     -0.444605    0.178589    0.577906
  C     -0.713185    0.393697   -0.795936
  C      0.573659    0.560343   -1.575322
  C      0.742149   -0.532766   -2.646379
  C      0.615189   -1.932354   -2.050704
  C      0.662933    2.024444   -2.083342
  C      1.627040    2.280580   -3.235260
  C      1.609809    0.363499   -0.500439
  C      2.973953    0.345879   -0.670153
  C      3.804712    0.190163    0.439701
  N      5.194899    0.138226    0.278558
  C      6.032102    0.747685    1.217470
  C      7.247715    0.162189    1.572497
  C      8.071910    0.773760    2.496938
  C      7.698359    1.969357    3.089276
  C      6.489234    2.551990    2.745588
  C      5.661955    1.952432    1.816064
  C      5.736501   -0.545591   -0.814788
  C      6.888170   -0.076215   -1.447014
  C      7.418551   -0.758554   -2.524771
  C      6.808689   -1.909214   -2.997724
  C      5.660800   -2.376394   -2.378267
  C      5.128713   -1.706615   -1.293971
  C      3.224527    0.083543    1.700973
  C      1.851205    0.089237    1.861743
  C      1.011760    0.202305    0.759424
  C     -1.483260   -0.327679    2.937414
  C     -0.967003    0.877005    3.751054
  C     -1.795354    2.136733    3.515741
  C     -0.736562   -1.634375    3.275806
  C     -1.311327   -2.838330    2.535521
  C     -2.944682   -0.518797    3.242917
  C     -3.501266   -0.796301    4.473695
  C     -4.877204   -0.924532    4.577690
  C     -5.667200   -0.763961    3.452645
  C     -5.107738   -0.486024    2.215367
  C     -3.728431   -0.368617    2.092414
  H     -7.204530    0.168431   -0.406422
  H     -7.015568    0.961593   -1.971054
  H     -7.331867    1.919801   -0.531557
  H     -5.153918    1.369068    0.418058
  H     -4.970770    2.123462   -1.149709
  H     -5.897201   -1.375204   -1.716402
  H     -5.305109   -1.609144   -0.067983
  H     -3.713824   -2.220123   -2.592540
  H     -3.145316   -2.443740   -0.937151
  H     -4.500396   -3.398311   -1.539258
  H     -5.807409    0.186431   -3.620731
  H     -4.794895    0.807576   -5.777739
  H     -2.395523    1.347091   -5.898109
  H     -0.988564    1.225081   -3.937869
  H      1.728080   -0.431357   -3.101614
  H     -0.008281   -0.429457   -3.426118
  H      0.764789   -2.681033   -2.825259
  H      1.354447   -2.092444   -1.268849
  H     -0.373645   -2.077846   -1.620807
  H      0.965273    2.639522   -1.230520
  H     -0.332568    2.363716   -2.370230
  H      1.605689    3.338478   -3.489681
  H      1.350896    1.715032   -4.121678
  H      2.646508    2.022496   -2.963854
  H      3.417464    0.439681   -1.649481
  H      7.537873   -0.775237    1.120788
  H      9.009421    0.308085    2.762820
  H      8.344398    2.442967    3.812342
  H      6.191047    3.486203    3.197949
  H      4.724061    2.413763    1.543466
  H      7.361039    0.826243   -1.087964
  H      8.310580   -0.383087   -3.004071
  H      7.225169   -2.437849   -3.841306
  H      5.179977   -3.275007   -2.735246
  H      4.240260   -2.080444   -0.806552
  H      3.860798   -0.021440    2.567791
  H      1.476719   -0.004711    2.865344
  H      0.063389    1.099421    3.485228
  H     -0.994622    0.617531    4.811684
  H     -1.383926    2.964130    4.089454
  H     -2.829466    1.988960    3.818853
  H     -1.782395    2.408347    2.462140
  H      0.315525   -1.550418    3.016397
  H     -0.807007   -1.803721    4.352499
  H     -1.238335   -2.692468    1.459661
  H     -0.756302   -3.736190    2.797666
  H     -2.357465   -2.992993    2.790420
  H     -2.877972   -0.910333    5.348885
  H     -5.331584   -1.142855    5.533095
  H     -6.740858   -0.854440    3.535976
  H     -5.772764   -0.360152    1.380850

----------------------------
CARTESIAN COORDINATES (A.U.)
----------------------------
  NO LB      ZA    FRAG     MASS         X           Y           Z
   0 C     6.0000    0    12.011  -12.859081    1.976102   -1.717770
   1 C     6.0000    0    12.011  -10.038639    2.291254   -1.226503
   2 C     6.0000    0    12.011   -8.305707    0.110137   -2.144432
   3 C     6.0000    0    12.011   -9.466882   -2.558282   -2.046332
   4 C     6.0000    0    12.011   -7.615348   -4.569624   -2.967773
   5 C     6.0000    0    12.011   -7.479758    0.666800   -4.814028
   6 C     6.0000    0    12.011   -8.981706    0.776007   -6.941254
   7 C     6.0000    0    12.011   -7.906337    1.433076   -9.237592
   8 C     6.0000    0    12.011   -5.355566    1.991623   -9.363515
   9 C     6.0000    0    12.011   -3.832862    1.842534   -7.238024
  10 C     6.0000    0    12.011   -4.873406    1.128598   -4.935226
  11 C     6.0000    0    12.011   -3.808591    0.752264   -2.401678
  12 C     6.0000    0    12.011   -5.821469    0.220675   -0.727234
  13 C     6.0000    0    12.011   -5.352759   -0.163489    1.821888
  14 C     6.0000    0    12.011   -2.837823   -0.093271    2.739336
  15 C     6.0000    0    12.011   -0.840182    0.337484    1.092084
  16 C     6.0000    0    12.011   -1.347725    0.743980   -1.504101
  17 C     6.0000    0    12.011    1.084059    1.058894   -2.976926
  18 C     6.0000    0    12.011    1.402458   -1.006782   -5.000931
  19 C     6.0000    0    12.011    1.162539   -3.651619   -3.875269
  20 C     6.0000    0    12.011    1.252762    3.825645   -3.936946
  21 C     6.0000    0    12.011    3.074659    4.309671   -6.113755
  22 C     6.0000    0    12.011    3.042098    0.686914   -0.945692
  23 C     6.0000    0    12.011    5.619957    0.653616   -1.266406
  24 C     6.0000    0    12.011    7.189864    0.359356    0.830915
  25 N     7.0000    0    14.007    9.816936    0.261209    0.526398
  26 C     6.0000    0    12.011   11.399021    1.412920    2.300685
  27 C     6.0000    0    12.011   13.696196    0.306492    2.971589
  28 C     6.0000    0    12.011   15.253698    1.462194    4.718529
  29 C     6.0000    0    12.011   14.547791    3.721546    5.837885
  30 C     6.0000    0    12.011   12.262874    4.822562    5.188410
  31 C     6.0000    0    12.011   10.699543    3.689561    3.431863
  32 C     6.0000    0    12.011   10.840416   -1.031018   -1.539726
  33 C     6.0000    0    12.011   13.016754   -0.144025   -2.734460
  34 C     6.0000    0    12.011   14.019029   -1.433459   -4.771125
  35 C     6.0000    0    12.011   12.866557   -3.607892   -5.664877
  36 C     6.0000    0    12.011   10.697362   -4.490734   -4.494273
  37 C     6.0000    0    12.011    9.691863   -3.225035   -2.445251
  38 C     6.0000    0    12.011    6.093473    0.157873    3.214373
  39 C     6.0000    0    12.011    3.498270    0.168634    3.518185
  40 C     6.0000    0    12.011    1.911950    0.382301    1.435103
  41 C     6.0000    0    12.011   -2.802955   -0.619223    5.550908
  42 C     6.0000    0    12.011   -1.827371    1.657299    7.088465
  43 C     6.0000    0    12.011   -3.392727    4.037841    6.643789
  44 C     6.0000    0    12.011   -1.391901   -3.088521    6.190376
  45 C     6.0000    0    12.011   -2.478050   -5.363667    4.791441
  46 C     6.0000    0    12.011   -5.564642   -0.980385    6.128226
  47 C     6.0000    0    12.011   -6.616434   -1.504791    8.454058
  48 C     6.0000    0    12.011   -9.216580   -1.747112    8.650581
  49 C     6.0000    0    12.011  -10.709456   -1.443678    6.524553
  50 C     6.0000    0    12.011   -9.652226   -0.918453    4.186438
  51 C     6.0000    0    12.011   -7.045713   -0.696586    3.954089
  52 H     1.0000    0     1.008  -13.614589    0.318289   -0.768026
  53 H     1.0000    0     1.008  -13.257502    1.817147   -3.724752
  54 H     1.0000    0     1.008  -13.855220    3.627898   -1.004498
  55 H     1.0000    0     1.008   -9.739493    2.587163    0.790016
  56 H     1.0000    0     1.008   -9.393395    4.012762   -2.172636
  57 H     1.0000    0     1.008  -11.144094   -2.598759   -3.243531
  58 H     1.0000    0     1.008  -10.025203   -3.040841   -0.128469
  59 H     1.0000    0     1.008   -7.018110   -4.195424   -4.899190
  60 H     1.0000    0     1.008   -5.943786   -4.617999   -1.770958
  61 H     1.0000    0     1.008   -8.504515   -6.421876   -2.908776
  62 H     1.0000    0     1.008  -10.974412    0.352303   -6.842191
  63 H     1.0000    0     1.008   -9.061039    1.526097  -10.918345
  64 H     1.0000    0     1.008   -4.526883    2.545633  -11.145811
  65 H     1.0000    0     1.008   -1.868114    2.315067   -7.441494
  66 H     1.0000    0     1.008    3.265597   -0.815147   -5.861201
  67 H     1.0000    0     1.008   -0.015648   -0.811555   -6.474424
  68 H     1.0000    0     1.008    1.445242   -5.066419   -5.338967
  69 H     1.0000    0     1.008    2.559534   -3.954145   -2.397778
  70 H     1.0000    0     1.008   -0.706087   -3.926559   -3.062881
  71 H     1.0000    0     1.008    1.824102    4.987973   -2.325346
  72 H     1.0000    0     1.008   -0.628463    4.466776   -4.479086
  73 H     1.0000    0     1.008    3.034313    6.308809   -6.594541
  74 H     1.0000    0     1.008    2.552823    3.240940   -7.788843
  75 H     1.0000    0     1.008    5.001175    3.821964   -5.600873
  76 H     1.0000    0     1.008    6.458072    0.830876   -3.117068
  77 H     1.0000    0     1.008   14.244516   -1.464986    2.117982
  78 H     1.0000    0     1.008   17.025339    0.582196    5.220973
  79 H     1.0000    0     1.008   15.768626    4.616539    7.204282
  80 H     1.0000    0     1.008   11.699383    6.587968    6.043248
  81 H     1.0000    0     1.008    8.927181    4.561352    2.916729
  82 H     1.0000    0     1.008   13.910348    1.561372   -2.055954
  83 H     1.0000    0     1.008   15.704719   -0.723930   -5.676872
  84 H     1.0000    0     1.008   13.653591   -4.606866   -7.259016
  85 H     1.0000    0     1.008    9.788738   -6.188867   -5.168867
  86 H     1.0000    0     1.008    8.012930   -3.931469   -1.524162
  87 H     1.0000    0     1.008    7.295851   -0.040515    4.852421
  88 H     1.0000    0     1.008    2.790595   -0.008903    5.414716
  89 H     1.0000    0     1.008    0.119787    2.077605    6.586126
  90 H     1.0000    0     1.008   -1.879563    1.166965    9.092765
  91 H     1.0000    0     1.008   -2.615242    5.601394    7.727948
  92 H     1.0000    0     1.008   -5.346916    3.758589    7.216586
  93 H     1.0000    0     1.008   -3.368238    4.551117    4.652771
  94 H     1.0000    0     1.008    0.596255   -2.929866    5.700165
  95 H     1.0000    0     1.008   -1.525022   -3.408538    8.225030
  96 H     1.0000    0     1.008   -2.340113   -5.088027    2.758359
  97 H     1.0000    0     1.008   -1.429203   -7.060376    5.286823
  98 H     1.0000    0     1.008   -4.454963   -5.655938    5.273131
  99 H     1.0000    0     1.008   -5.438578   -1.720280   10.107928
 100 H     1.0000    0     1.008  -10.075233   -2.159684   10.456034
 101 H     1.0000    0     1.008  -12.738375   -1.614657    6.682025
 102 H     1.0000    0     1.008  -10.908942   -0.680589    2.609429

--------------------------------
INTERNAL COORDINATES (ANGSTROEM)
--------------------------------
 C      0   0   0     0.000000000000     0.00000000     0.00000000
 C      1   0   0     1.524136973449     0.00000000     0.00000000
 C      2   1   0     1.552115317075   116.34773359     0.00000000
 C      3   2   1     1.540843150590   115.80583051   327.21536645
 C      4   3   2     1.526630323192   111.85281022   180.38589004
 C      3   2   1     1.507812052556   108.61453548    90.25380023
 C      6   3   2     1.379200901373   127.28876372   294.24291690
 C      7   6   3     1.386133876733   119.30404557   177.01791603
 C      8   7   6     1.383397860705   119.76158047   359.40867500
 C      9   8   7     1.385854947314   121.06826450     1.69490862
 C     10   9   8     1.389562678660   119.78970795   359.81797733
 C     11  10   9     1.467865566637   133.29490169   178.78790042
 C     12  11  10     1.413807408556   108.07223721   175.22790072
 C     13  12  11     1.386534586733   120.27405143   181.41588253
 C     14  13  12     1.417123056737   119.83149860   358.21790529
 C     15  14  13     1.388982604241   120.26716925   359.45588376
 C     12  11  10     1.386159233682   132.37906525   352.56815373
 C     17  12  11     1.513664942788   128.45478382   357.81225184
 C     18  17  12     1.539623248122   111.90494507   300.18656288
 C     19  18  17     1.526365770363   111.74180134   306.34966339
 C     18  17  12     1.552304032931   108.73802358    69.40401889
 C     21  18  17     1.523818194128   116.25196536   198.89977400
 C     18  17  12     1.505897057435   101.71472642   183.76874091
 C     23  18  17     1.374773825371   126.60543106   176.60275823
 C     24  23  18     1.395057457682   119.61153484   178.13676543
 N     25  24  23     1.400458039013   120.24723933   178.46885374
 C     26  25  24     1.397821948339   120.07166608   142.10719610
 C     27  26  25     1.395193526024   120.65017369   143.14675796
 C     28  27  26     1.381269997276   120.29090406   179.72420450
 C     29  28  27     1.385589051600   120.48375212     0.45491900
 C     30  29  28     1.385484305262   119.47848562   359.87199565
 C     31  30  29     1.381259168957   120.47032445   359.72315573
 C     26  25  24     1.398693112832   119.50215905   321.05960660
 C     33  26  25     1.395121841731   120.62401567   144.30533146
 C     34  33  26     1.381466636237   120.28459874   179.87772830
 C     35  34  33     1.385509380007   120.49872093     0.53703530
 C     36  35  34     1.385508032395   119.47846102   359.79869712
 C     37  36  35     1.381092918516   120.44308726   359.71908085
 C     25  24  23     1.392404346276   118.75413836   358.69599044
 C     39  25  24     1.382712285105   121.25549782     1.95904371
 C     40  39  25     1.390165002242   120.52291105     0.00000000
 C     15  14  13     1.513740509447   110.08111900   181.24473877
 C     42  15  14     1.542657938718   112.26516414   243.68195674
 C     43  42  15     1.525926860423   112.43789733    57.89652185
 C     42  15  14     1.542569789582   112.16418010   115.75858872
 C     45  42  15     1.525741063732   112.31179406   304.04202286
 C     42  15  14     1.505195001404   102.18104502   359.71165511
 C     47  42  15     1.378988157719   126.76852634   180.25485951
 C     48  47  42     1.385807551636   119.10042094   179.16685037
 C     49  48  47     1.384053377063   119.66873102   359.56539524
 C     50  49  48     1.386038199258   121.23112434     0.49275114
 C     51  50  49     1.389744609215   119.77048146     0.19271435
 H      1   2   3     1.087217823343   111.68722341    61.12439564
 H      1   2   3     1.086036328933   111.43092961   299.52725658
 H      1   2   3     1.088290109046   109.10364180   180.49102244
 H      2   1   3     1.090079291787   108.95923788   236.19072214
 H      2   1   3     1.094143140147   108.58114287   120.64687263
 H      4   3   2     1.090665099806   108.84114730    60.08010847
 H      4   3   2     1.087428608394   110.79314282   300.92405827
 H      5   4   3     1.087982806022   111.07495259   301.16057716
 H      5   4   3     1.088205729677   110.62204415    61.53053376
 H      5   4   3     1.087705615374   109.96611166   181.09200158
 H      7   6   3     1.079341769887   120.97486775   356.82174628
 H      8   7   6     1.080211362082   120.06758515   180.01046187
 H      9   8   7     1.080639337511   119.73223808   181.40833760
 H     10   9   8     1.074753672022   117.89901225   180.57941525
 H     19  18  17     1.090679633326   108.86095520   186.07934484
 H     19  18  17     1.087110839347   110.85199873    66.92126389
 H     20  19  18     1.087583444075   109.98881943   181.49447633
 H     20  19  18     1.087854616054   111.03245672   301.58374333
 H     20  19  18     1.088013063665   110.63480743    61.86310709
 H     21  18  17     1.094090957828   106.91968877    77.37515468
 H     21  18  17     1.090153028361   109.09525498   322.67907379
 H     22  21  18     1.088271154115   109.12994928   180.59925156
 H     22  21  18     1.087123513321   111.60612625    61.23202494
 H     22  21  18     1.086086298895   111.40984374   299.67591674
 H     24  23  18     1.079159154669   121.24614245   357.46424045
 H     28  27  26     1.080277649843   119.45768717   359.53028685
 H     29  28  27     1.080034554921   119.45957032   179.92583336
 H     30  29  28     1.079118554576   120.24860278   179.89100857
 H     31  30  29     1.079953225161   120.05520525   180.29717921
 H     32  31  30     1.080176476227   120.29705481   180.56380357
 H     34  33  26     1.080255400896   119.45870797   359.77550313
 H     35  34  33     1.080008827648   119.44684830   179.99873058
 H     36  35  34     1.079138969698   120.25162688   179.86148228
 H     37  36  35     1.079875455387   120.11164137   180.31462707
 H     38  37  36     1.080127041429   120.22113411   180.71831828
 H     39  25  24     1.080386653137   119.26224916   180.96959766
 H     40  39  25     1.075305198289   117.00402607   179.53454162
 H     43  42  15     1.087124817304   110.36442611   297.32427626
 H     43  42  15     1.092256865826   108.55298082   179.06992267
 H     44  43  42     1.087659813967   109.95738180   181.28406594
 H     44  43  42     1.087704742561   111.15994481    61.21534418
 H     44  43  42     1.088125837486   110.42140810   300.90961282
 H     45  42  15     1.086843536171   110.53539206    64.79450442
 H     45  42  15     1.092202886931   108.44379926   183.05972262
 H     46  45  42     1.088154015980   110.40604066    60.24362582
 H     46  45  42     1.087623951624   110.01294686   179.77375254
 H     46  45  42     1.087795053525   111.14840987   299.94168794
 H     48  47  42     1.080489212926   120.75335342   359.34480506
 H     49  48  47     1.080242680229   120.17903193   179.93099848
 H     50  49  48     1.080681145867   119.64880211   180.59749302
 H     51  50  49     1.074486910196   117.83814559   180.73103843

---------------------------
INTERNAL COORDINATES (A.U.)
---------------------------
 C      0   0   0     0.000000000000     0.00000000     0.00000000
 C      1   0   0     2.880201470403     0.00000000     0.00000000
 C      2   1   0     2.933072877537   116.34773359     0.00000000
 C      3   2   1     2.911771569943   115.80583051   327.21536645
 C      4   3   2     2.884913218573   111.85281022   180.38589004
 C      3   2   1     2.849351840757   108.61453548    90.25380023
 C      6   3   2     2.606311987253   127.28876372   294.24291690
 C      7   6   3     2.619413411976   119.30404557   177.01791603
 C      8   7   6     2.614243090986   119.76158047   359.40867500
 C      9   8   7     2.618886311763   121.06826450     1.69490862
 C     10   9   8     2.625892908585   119.78970795   359.81797733
 C     11  10   9     2.773863922357   133.29490169   178.78790042
 C     12  11  10     2.671708808280   108.07223721   175.22790072
 C     13  12  11     2.620170644134   120.27405143   181.41588253
 C     14  13  12     2.677974475298   119.83149860   358.21790529
 C     15  14  13     2.624796726797   120.26716925   359.45588376
 C     12  11  10     2.619461329666   132.37906525   352.56815373
 C     17  12  11     2.860412200386   128.45478382   357.81225184
 C     18  17  12     2.909466288369   111.90494507   300.18656288
 C     19  18  17     2.884413286177   111.74180134   306.34966339
 C     18  17  12     2.933429498821   108.73802358    69.40401889
 C     21  18  17     2.879599064789   116.25196536   198.89977400
 C     18  17  12     2.845733024431   101.71472642   183.76874091
 C     23  18  17     2.597946026034   126.60543106   176.60275823
 C     24  23  18     2.636276536104   119.61153484   178.13676543
 N     25  24  23     2.646482155784   120.24723933   178.46885374
 C     26  25  24     2.641500666346   120.07166608   142.10719610
 C     27  26  25     2.636533668006   120.65017369   143.14675796
 C     28  27  26     2.610222011853   120.29090406   179.72420450
 C     29  28  27     2.618383841683   120.48375212     0.45491900
 C     30  29  28     2.618185899791   119.47848562   359.87199565
 C     31  30  29     2.610201549297   120.47032445   359.72315573
 C     26  25  24     2.643146928654   119.50215905   321.05960660
 C     33  26  25     2.636398204324   120.62401567   144.30533146
 C     34  33  26     2.610593605637   120.28459874   179.87772830
 C     35  34  33     2.618233284193   120.49872093     0.53703530
 C     36  35  34     2.618230737574   119.47846102   359.79869712
 C     37  36  35     2.609887381494   120.44308726   359.71908085
 C     25  24  23     2.631262882143   118.75413836   358.69599044
 C     39  25  24     2.612947540856   121.25549782     1.95904371
 C     40  39  25     2.627031135200   120.52291105     0.00000000
 C     15  14  13     2.860555000678   110.08111900   181.24473877
 C     42  15  14     2.915201022496   112.26516414   243.68195674
 C     43  42  15     2.883583866593   112.43789733    57.89652185
 C     42  15  14     2.915034444770   112.16418010   115.75858872
 C     45  42  15     2.883232761732   112.31179406   304.04202286
 C     42  15  14     2.844406330800   102.18104502   359.71165511
 C     47  42  15     2.605909960009   126.76852634   180.25485951
 C     48  47  42     2.618796746913   119.10042094   179.16685037
 C     49  48  47     2.615481837379   119.66873102   359.56539524
 C     50  49  48     2.619232607752   121.23112434     0.49275114
 C     51  50  49     2.626236707511   119.77048146     0.19271435
 H      1   2   3     2.054543934037   111.68722341    61.12439564
 H      1   2   3     2.052311233172   111.43092961   299.52725658
 H      1   2   3     2.056570260353   109.10364180   180.49102244
 H      2   1   3     2.059951325736   108.95923788   236.19072214
 H      2   1   3     2.067630886186   108.58114287   120.64687263
 H      4   3   2     2.061058342459   108.84114730    60.08010847
 H      4   3   2     2.054942260055   110.79314282   300.92405827
 H      5   4   3     2.055989541797   111.07495259   301.16057716
 H      5   4   3     2.056410806454   110.62204415    61.53053376
 H      5   4   3     2.055465727385   109.96611166   181.09200158
 H      7   6   3     2.039660349987   120.97486775   356.82174628
 H      8   7   6     2.041303641084   120.06758515   180.01046187
 H      9   8   7     2.042112397438   119.73223808   181.40833760
 H     10   9   8     2.030990101548   117.89901225   180.57941525
 H     19  18  17     2.061085806832   108.86095520   186.07934484
 H     19  18  17     2.054341763583   110.85199873    66.92126389
 H     20  19  18     2.055234857089   109.98881943   181.49447633
 H     20  19  18     2.055747297864   111.03245672   301.58374333
 H     20  19  18     2.056046720456   110.63480743    61.86310709
 H     21  18  17     2.067532275895   106.91968877    77.37515468
 H     21  18  17     2.060090667668   109.09525498   322.67907379
 H     22  21  18     2.056534440724   109.12994928   180.59925156
 H     22  21  18     2.054365713923   111.60612625    61.23202494
 H     22  21  18     2.052405662716   111.40984374   299.67591674
 H     24  23  18     2.039315257238   121.24614245   357.46424045
 H     28  27  26     2.041428906800   119.45768717   359.53028685
 H     29  28  27     2.040969523972   119.45957032   179.92583336
 H     30  29  28     2.039238534182   120.24860278   179.89100857
 H     31  30  29     2.040815832999   120.05520525   180.29717921
 H     32  31  30     2.041237716374   120.29705481   180.56380357
 H     34  33  26     2.041386862383   119.45870797   359.77550313
 H     35  34  33     2.040920906472   119.44684830   179.99873058
 H     36  35  34     2.039277113172   120.25162688   179.86148228
 H     37  36  35     2.040668869426   120.11164137   180.31462707
 H     38  37  36     2.041144298144   120.22113411   180.71831828
 H     39  25  24     2.041634893173   119.26224916   180.96959766
 H     40  39  25     2.032032335148   117.00402607   179.53454162
 H     43  42  15     2.054368178094   110.36442611   297.32427626
 H     43  42  15     2.064066344307   108.55298082   179.06992267
 H     44  43  42     2.055379175270   109.95738180   181.28406594
 H     44  43  42     2.055464078009   111.15994481    61.21534418
 H     44  43  42     2.056259832092   110.42140810   300.90961282
 H     45  42  15     2.053836633785   110.53539206    64.79450442
 H     45  42  15     2.063964338977   108.44379926   183.05972262
 H     46  45  42     2.056313081729   110.40604066    60.24362582
 H     46  45  42     2.055311405263   110.01294686   179.77375254
 H     46  45  42     2.055634740996   111.14840987   299.94168794
 H     48  47  42     2.041828703086   120.75335342   359.34480506
 H     49  48  47     2.041362823806   120.17903193   179.93099848
 H     50  49  48     2.042191403781   119.64880211   180.59749302
 H     51  50  49     2.030485994753   117.83814559   180.73103843

---------------------
BASIS SET INFORMATION
---------------------
There are 3 groups of distinct atoms

 Group   1 Type C   : 12s6p3d1f contracted to 6s3p3d1f pattern {621111/411/111/1}
 Group   2 Type N   : 12s6p3d1f contracted to 6s3p3d1f pattern {621111/411/111/1}
 Group   3 Type H   : 5s3p1d contracted to 3s3p1d pattern {311/111/1}

Atom   0C    basis set group =>   1
Atom   1C    basis set group =>   1
Atom   2C    basis set group =>   1
Atom   3C    basis set group =>   1
Atom   4C    basis set group =>   1
Atom   5C    basis set group =>   1
Atom   6C    basis set group =>   1
Atom   7C    basis set group =>   1
Atom   8C    basis set group =>   1
Atom   9C    basis set group =>   1
Atom  10C    basis set group =>   1
Atom  11C    basis set group =>   1
Atom  12C    basis set group =>   1
Atom  13C    basis set group =>   1
Atom  14C    basis set group =>   1
Atom  15C    basis set group =>   1
Atom  16C    basis set group =>   1
Atom  17C    basis set group =>   1
Atom  18C    basis set group =>   1
Atom  19C    basis set group =>   1
Atom  20C    basis set group =>   1
Atom  21C    basis set group =>   1
Atom  22C    basis set group =>   1
Atom  23C    basis set group =>   1
Atom  24C    basis set group =>   1
Atom  25N    basis set group =>   2
Atom  26C    basis set group =>   1
Atom  27C    basis set group =>   1
Atom  28C    basis set group =>   1
Atom  29C    basis set group =>   1
Atom  30C    basis set group =>   1
Atom  31C    basis set group =>   1
Atom  32C    basis set group =>   1
Atom  33C    basis set group =>   1
Atom  34C    basis set group =>   1
Atom  35C    basis set group =>   1
Atom  36C    basis set group =>   1
Atom  37C    basis set group =>   1
Atom  38C    basis set group =>   1
Atom  39C    basis set group =>   1
Atom  40C    basis set group =>   1
Atom  41C    basis set group =>   1
Atom  42C    basis set group =>   1
Atom  43C    basis set group =>   1
Atom  44C    basis set group =>   1
Atom  45C    basis set group =>   1
Atom  46C    basis set group =>   1
Atom  47C    basis set group =>   1
Atom  48C    basis set group =>   1
Atom  49C    basis set group =>   1
Atom  50C    basis set group =>   1
Atom  51C    basis set group =>   1
Atom  52H    basis set group =>   3
Atom  53H    basis set group =>   3
Atom  54H    basis set group =>   3
Atom  55H    basis set group =>   3
Atom  56H    basis set group =>   3
Atom  57H    basis set group =>   3
Atom  58H    basis set group =>   3
Atom  59H    basis set group =>   3
Atom  60H    basis set group =>   3
Atom  61H    basis set group =>   3
Atom  62H    basis set group =>   3
Atom  63H    basis set group =>   3
Atom  64H    basis set group =>   3
Atom  65H    basis set group =>   3
Atom  66H    basis set group =>   3
Atom  67H    basis set group =>   3
Atom  68H    basis set group =>   3
Atom  69H    basis set group =>   3
Atom  70H    basis set group =>   3
Atom  71H    basis set group =>   3
Atom  72H    basis set group =>   3
Atom  73H    basis set group =>   3
Atom  74H    basis set group =>   3
Atom  75H    basis set group =>   3
Atom  76H    basis set group =>   3
Atom  77H    basis set group =>   3
Atom  78H    basis set group =>   3
Atom  79H    basis set group =>   3
Atom  80H    basis set group =>   3
Atom  81H    basis set group =>   3
Atom  82H    basis set group =>   3
Atom  83H    basis set group =>   3
Atom  84H    basis set group =>   3
Atom  85H    basis set group =>   3
Atom  86H    basis set group =>   3
Atom  87H    basis set group =>   3
Atom  88H    basis set group =>   3
Atom  89H    basis set group =>   3
Atom  90H    basis set group =>   3
Atom  91H    basis set group =>   3
Atom  92H    basis set group =>   3
Atom  93H    basis set group =>   3
Atom  94H    basis set group =>   3
Atom  95H    basis set group =>   3
Atom  96H    basis set group =>   3
Atom  97H    basis set group =>   3
Atom  98H    basis set group =>   3
Atom  99H    basis set group =>   3
Atom 100H    basis set group =>   3
Atom 101H    basis set group =>   3
Atom 102H    basis set group =>   3
---------------------------------
AUXILIARY/J BASIS SET INFORMATION
---------------------------------
There are 3 groups of distinct atoms

 Group   1 Type C   : 12s5p4d2f1g contracted to 6s4p3d1f1g pattern {711111/2111/211/2/1}
 Group   2 Type N   : 12s5p4d2f1g contracted to 6s4p3d1f1g pattern {711111/2111/211/2/1}
 Group   3 Type H   : 5s2p1d contracted to 3s1p1d pattern {311/2/1}

Atom   0C    basis set group =>   1
Atom   1C    basis set group =>   1
Atom   2C    basis set group =>   1
Atom   3C    basis set group =>   1
Atom   4C    basis set group =>   1
Atom   5C    basis set group =>   1
Atom   6C    basis set group =>   1
Atom   7C    basis set group =>   1
Atom   8C    basis set group =>   1
Atom   9C    basis set group =>   1
Atom  10C    basis set group =>   1
Atom  11C    basis set group =>   1
Atom  12C    basis set group =>   1
Atom  13C    basis set group =>   1
Atom  14C    basis set group =>   1
Atom  15C    basis set group =>   1
Atom  16C    basis set group =>   1
Atom  17C    basis set group =>   1
Atom  18C    basis set group =>   1
Atom  19C    basis set group =>   1
Atom  20C    basis set group =>   1
Atom  21C    basis set group =>   1
Atom  22C    basis set group =>   1
Atom  23C    basis set group =>   1
Atom  24C    basis set group =>   1
Atom  25N    basis set group =>   2
Atom  26C    basis set group =>   1
Atom  27C    basis set group =>   1
Atom  28C    basis set group =>   1
Atom  29C    basis set group =>   1
Atom  30C    basis set group =>   1
Atom  31C    basis set group =>   1
Atom  32C    basis set group =>   1
Atom  33C    basis set group =>   1
Atom  34C    basis set group =>   1
Atom  35C    basis set group =>   1
Atom  36C    basis set group =>   1
Atom  37C    basis set group =>   1
Atom  38C    basis set group =>   1
Atom  39C    basis set group =>   1
Atom  40C    basis set group =>   1
Atom  41C    basis set group =>   1
Atom  42C    basis set group =>   1
Atom  43C    basis set group =>   1
Atom  44C    basis set group =>   1
Atom  45C    basis set group =>   1
Atom  46C    basis set group =>   1
Atom  47C    basis set group =>   1
Atom  48C    basis set group =>   1
Atom  49C    basis set group =>   1
Atom  50C    basis set group =>   1
Atom  51C    basis set group =>   1
Atom  52H    basis set group =>   3
Atom  53H    basis set group =>   3
Atom  54H    basis set group =>   3
Atom  55H    basis set group =>   3
Atom  56H    basis set group =>   3
Atom  57H    basis set group =>   3
Atom  58H    basis set group =>   3
Atom  59H    basis set group =>   3
Atom  60H    basis set group =>   3
Atom  61H    basis set group =>   3
Atom  62H    basis set group =>   3
Atom  63H    basis set group =>   3
Atom  64H    basis set group =>   3
Atom  65H    basis set group =>   3
Atom  66H    basis set group =>   3
Atom  67H    basis set group =>   3
Atom  68H    basis set group =>   3
Atom  69H    basis set group =>   3
Atom  70H    basis set group =>   3
Atom  71H    basis set group =>   3
Atom  72H    basis set group =>   3
Atom  73H    basis set group =>   3
Atom  74H    basis set group =>   3
Atom  75H    basis set group =>   3
Atom  76H    basis set group =>   3
Atom  77H    basis set group =>   3
Atom  78H    basis set group =>   3
Atom  79H    basis set group =>   3
Atom  80H    basis set group =>   3
Atom  81H    basis set group =>   3
Atom  82H    basis set group =>   3
Atom  83H    basis set group =>   3
Atom  84H    basis set group =>   3
Atom  85H    basis set group =>   3
Atom  86H    basis set group =>   3
Atom  87H    basis set group =>   3
Atom  88H    basis set group =>   3
Atom  89H    basis set group =>   3
Atom  90H    basis set group =>   3
Atom  91H    basis set group =>   3
Atom  92H    basis set group =>   3
Atom  93H    basis set group =>   3
Atom  94H    basis set group =>   3
Atom  95H    basis set group =>   3
Atom  96H    basis set group =>   3
Atom  97H    basis set group =>   3
Atom  98H    basis set group =>   3
Atom  99H    basis set group =>   3
Atom 100H    basis set group =>   3
Atom 101H    basis set group =>   3
Atom 102H    basis set group =>   3


           ************************************************************
           *        Program running with 24 parallel MPI-processes    *
           *              working on a common directory               *
           ************************************************************
------------------------------------------------------------------------------
                           ORCA GTO INTEGRAL CALCULATION
                           -- RI-GTO INTEGRALS CHOSEN --
------------------------------------------------------------------------------
------------------------------------------------------------------------------
                   ___                                                        
                  /   \      - P O W E R E D   B Y -                         
                 /     \                                                     
                 |  |  |   _    _      __       _____    __    __             
                 |  |  |  | |  | |    /  \     |  _  \  |  |  /  |          
                  \  \/   | |  | |   /    \    | | | |  |  | /  /          
                 / \  \   | |__| |  /  /\  \   | |_| |  |  |/  /          
                |  |  |   |  __  | /  /__\  \  |    /   |      \           
                |  |  |   | |  | | |   __   |  |    \   |  |\   \          
                \     /   | |  | | |  |  |  |  | |\  \  |  | \   \       
                 \___/    |_|  |_| |__|  |__|  |_| \__\ |__|  \__/        
                                                                              
                      - O R C A' S   B I G   F R I E N D -                    
                                      &                                       
                       - I N T E G R A L  F E E D E R -                       
                                                                              
 v1 FN, 2020, v2 2021                                                         
------------------------------------------------------------------------------


Reading SHARK input file 14/14.SHARKINP.tmp ... ok
----------------------
SHARK INTEGRAL PACKAGE
----------------------

Number of atoms                             ...    103
Number of basis functions                   ...   2791
Number of shells                            ...   1033
Maximum angular momentum                    ...      3
Integral batch strategy                     ... SHARK/LIBINT Hybrid
RI-J (if used) integral strategy            ... SPLIT-RIJ (Revised 2003 algorithm where possible)
Printlevel                                  ...      1
Contraction scheme used                     ... SEGMENTED contraction
Coulomb Range Separation                    ... NOT USED
Exchange Range Separation                   ... Long Range
   Mu parameter                             ...  0.330000
   Scaling (regular/separated)              ...  0.190000  0.460000
Finite Nucleus Model                        ... NOT USED
Auxiliary Coulomb fitting basis             ... AVAILABLE
   # of basis functions in Aux-J            ...   3109
   # of shells in Aux-J                     ...   1035
   Maximum angular momentum in Aux-J        ...      4
Auxiliary J/K fitting basis                 ... NOT available
Auxiliary Correlation fitting basis         ... NOT available
Auxiliary 'external' fitting basis          ... NOT available
Integral threshold                          ...     1.000000e-10
Primitive cut-off                           ...     1.000000e-11
Primitive pair pre-selection threshold      ...     1.000000e-11

Calculating pre-screening integrals         ... done (  0.2 sec) Dimension = 1033
Organizing shell pair data                  ... done (  9.1 sec)
Shell pair information
Total number of shell pairs                 ...    534061
Shell pairs after pre-screening             ...    314284
Total number of primitive shell pairs       ...   1286903
Primitive shell pairs kept                  ...    517051
          la=0 lb=0:  64100 shell pairs
          la=1 lb=0:  87035 shell pairs
          la=1 lb=1:  29754 shell pairs
          la=2 lb=0:  56413 shell pairs
          la=2 lb=1:  38467 shell pairs
          la=2 lb=2:  12523 shell pairs
          la=3 lb=0:  12004 shell pairs
          la=3 lb=1:   8244 shell pairs
          la=3 lb=2:   5196 shell pairs
          la=3 lb=3:    548 shell pairs

Calculating one electron integrals          ... done (  0.7 sec)
Calculating RI/J V-Matrix + Cholesky decomp.... done (  1.4 sec)
Calculating Nuclear repulsion               ... done (  0.0 sec) ENN=   6923.574282245875 Eh

SHARK setup successfully completed in  21.2 seconds

Maximum memory used throughout the entire GTOINT-calculation: 449.9 MB


           ************************************************************
           *        Program running with 24 parallel MPI-processes    *
           *              working on a common directory               *
           ************************************************************
-------------------------------------------------------------------------------
                                 ORCA SCF
-------------------------------------------------------------------------------

------------
SCF SETTINGS
------------
Hamiltonian:
 Density Functional     Method          .... DFT(GTOs)
 Exchange Functional    Exchange        .... WB88
 Correlation Functional Correlation     .... LYP
 LDA part of GGA corr.  LDAOpt          .... VWN-5
 Gradients option       PostSCFGGA      .... off
 Hybrid DFT is turned on
   Fraction HF Exchange ScalHFX         ....  0.190000
   Scaling of DF-GGA-X  ScalDFX         ....  0.350000
   Scaling of DF-GGA-C  ScalDFC         ....  0.810000
   Scaling of DF-LDA-C  ScalLDAC        ....  1.000000
   Perturbative correction              ....  0.000000
   Density functional embedding theory  .... OFF
 Long-range corrected/Screened/Range-Separated Hybrid DFT is turned on
   Amount of maximum screened exact exchange              ....  0.460000
   Range separation parameter mu (erf(mu*r12)/r12)        ....  0.330000
 RI-approximation to the Coulomb term is turned on
   Number of AuxJ basis functions       .... 3109
   RIJ-COSX (HFX calculated with COS-X)).... on


General Settings:
 Integral files         IntName         .... 14/14
 Hartree-Fock type      HFTyp           .... RHF
 Total Charge           Charge          ....    0
 Multiplicity           Mult            ....    1
 Number of Electrons    NEL             ....  364
 Basis Dimension        Dim             .... 2791
 Nuclear Repulsion      ENuc            ....   6923.5742822459 Eh

Convergence Acceleration:
 DIIS                   CNVDIIS         .... on
   Start iteration      DIISMaxIt       ....    12
   Startup error        DIISStart       ....  0.200000
   # of expansion vecs  DIISMaxEq       ....     5
   Bias factor          DIISBfac        ....   1.050
   Max. coefficient     DIISMaxC        ....  10.000
 Trust-Rad. Augm. Hess. CNVTRAH         .... auto
   Auto Start mean grad. ratio tolernc. ....  1.125000
   Auto Start start iteration           ....    20
   Auto Start num. interpolation iter.  ....    10
   Max. Number of Micro iterations      ....    16
   Max. Number of Macro iterations      .... Maxiter - #DIIS iter
   Number of Davidson start vectors     ....     2
   Converg. threshold I  (grad. norm)   ....   5.000e-05
   Converg. threshold II (energy diff.) ....   1.000e-06
   Grad. Scal. Fac. for Micro threshold ....   0.100
   Minimum threshold for Micro iter.    ....   0.010
   NR start threshold (gradient norm)   ....   0.001
   Initial trust radius                 ....   0.400
   Minimum AH scaling param. (alpha)    ....   1.000
   Maximum AH scaling param. (alpha)    .... 1000.000
   Orbital update algorithm             .... Taylor
   White noise on init. David. guess    .... on
   Maximum white noise                  ....   0.010
   Quad. conv. algorithm                .... NR
 SOSCF                  CNVSOSCF        .... on
   Start iteration      SOSCFMaxIt      ....   150
   Startup grad/error   SOSCFStart      ....  0.003300
 Level Shifting         CNVShift        .... on
   Level shift para.    LevelShift      ....    0.2500
   Turn off err/grad.   ShiftErr        ....    0.0010
 Zerner damping         CNVZerner       .... off
 Static damping         CNVDamp         .... on
   Fraction old density DampFac         ....    0.7000
   Max. Damping (<1)    DampMax         ....    0.9800
   Min. Damping (>=0)   DampMin         ....    0.0000
   Turn off err/grad.   DampErr         ....    0.1000
 Fernandez-Rico         CNVRico         .... off

SCF Procedure:
 Maximum # iterations   MaxIter         ....   125
 SCF integral mode      SCFMode         .... Direct
   Integral package                     .... SHARK and LIBINT hybrid scheme
 Reset frequency        DirectResetFreq ....    20
 Integral Threshold     Thresh          ....  1.000e-10 Eh
 Primitive CutOff       TCut            ....  1.000e-11 Eh

Convergence Tolerance:
 Convergence Check Mode ConvCheckMode   .... Total+1el-Energy
 Convergence forced     ConvForced      .... 1
 Energy Change          TolE            ....  1.000e-06 Eh
 1-El. energy change                    ....  1.000e-03 Eh
 Orbital Gradient       TolG            ....  5.000e-05
 Orbital Rotation angle TolX            ....  5.000e-05
 DIIS Error             TolErr          ....  1.000e-06


Diagonalization of the overlap matrix:
Smallest eigenvalue                        ... 4.754e-09
Time for diagonalization                   ...    1.389 sec
Threshold for overlap eigenvalues          ... 1.000e-08
Number of eigenvalues below threshold      ... 4
Smallest eigenvalue above threshold        ... 1.079e-08
Time for construction of square roots      ...    1.238 sec
Total time needed                          ...    2.664 sec

Time for model grid setup =    1.814 sec

------------------------------
INITIAL GUESS: MODEL POTENTIAL
------------------------------
Loading Hartree-Fock densities                     ... done
Calculating cut-offs                               ... done
Initializing the effective Hamiltonian             ... done
Setting up the integral package (SHARK)            ... done
Starting the Coulomb interaction                   ... done (   5.2 sec)
Reading the grid                                   ... done
Mapping shells                                     ... done
Starting the XC term evaluation                    ... done (   2.3 sec)
  promolecular density results
     # of electrons  =    363.975012846
     EX              =   -282.864245993
     EC              =    -12.277572680
     EX+EC           =   -295.141818673
Transforming the Hamiltonian                       ... done (   0.8 sec)
Diagonalizing the Hamiltonian                      ... done (   1.4 sec)
Back transforming the eigenvectors                 ... done (   0.4 sec)
Now organizing SCF variables                       ... done
                      ------------------
                      INITIAL GUESS DONE (  12.8 sec)
                      ------------------
-------------------
DFT GRID GENERATION
-------------------

General Integration Accuracy     IntAcc      ... 4.959
Radial Grid Type                 RadialGrid  ... OptM3 with GC (2021)
Angular Grid (max. ang.)         AngularGrid ... 6 (Lebedev-590)
Angular grid pruning method      GridPruning ... 4 (adaptive)
Weight generation scheme         WeightScheme... Becke
Basis function cutoff            BFCut       ... 1.0000e-10
Integration weight cutoff        WCut        ... 1.0000e-14
Angular grids for H and He will be reduced by one unit
Partially contracted basis set               ... off
Rotationally invariant grid construction     ... off

Total number of grid points                  ...  1194509
Total number of batches                      ...    18715
Average number of points per batch           ...       63
Average number of grid points per atom       ...    11597
Time for grid setup =   23.040 sec

--------------------
COSX GRID GENERATION
--------------------

GRIDX 1
-------
General Integration Accuracy     IntAcc      ... 4.020
Radial Grid Type                 RadialGrid  ... OptM3 with GC (2021)
Angular Grid (max. ang.)         AngularGrid ... 2 (Lebedev-110)
Angular grid pruning method      GridPruning ... 4 (adaptive)
Weight generation scheme         WeightScheme... Becke
Basis function cutoff            BFCut       ... 1.0000e-10
Integration weight cutoff        WCut        ... 1.0000e-14
Angular grids for H and He will be reduced by one unit
Partially contracted basis set               ... on
Rotationally invariant grid construction     ... off

Total number of grid points                  ...   135478
Total number of batches                      ...     2170
Average number of points per batch           ...       62
Average number of grid points per atom       ...     1315
UseSFitting                                  ... on

GRIDX 2
-------
General Integration Accuracy     IntAcc      ... 4.338
Radial Grid Type                 RadialGrid  ... OptM3 with GC (2021)
Angular Grid (max. ang.)         AngularGrid ... 3 (Lebedev-194)
Angular grid pruning method      GridPruning ... 4 (adaptive)
Weight generation scheme         WeightScheme... Becke
Basis function cutoff            BFCut       ... 1.0000e-10
Integration weight cutoff        WCut        ... 1.0000e-14
Angular grids for H and He will be reduced by one unit
Partially contracted basis set               ... on
Rotationally invariant grid construction     ... off

Total number of grid points                  ...   298382
Total number of batches                      ...     4712
Average number of points per batch           ...       63
Average number of grid points per atom       ...     2897
UseSFitting                                  ... on

GRIDX 3
-------
General Integration Accuracy     IntAcc      ... 4.871
Radial Grid Type                 RadialGrid  ... OptM3 with GC (2021)
Angular Grid (max. ang.)         AngularGrid ... 4 (Lebedev-302)
Angular grid pruning method      GridPruning ... 4 (adaptive)
Weight generation scheme         WeightScheme... Becke
Basis function cutoff            BFCut       ... 1.0000e-10
Integration weight cutoff        WCut        ... 1.0000e-14
Angular grids for H and He will be reduced by one unit
Partially contracted basis set               ... on
Rotationally invariant grid construction     ... off

Total number of grid points                  ...   553014
Total number of batches                      ...     8696
Average number of points per batch           ...       63
Average number of grid points per atom       ...     5369
UseSFitting                                  ... on

Time for X-Grid setup             =   38.003 sec


--------------------
CPCM SOLVATION MODEL
--------------------
CPCM parameters:
  Epsilon                                         ...      36.6000
  Refrac                                          ...       1.3440
  Rsolv                                           ...       1.3000
  Surface type                                    ... GAUSSIAN VDW
  Epsilon function type                           ...         CPCM
Radii:
 Radius for C  used is    3.8550 Bohr (=   2.0400 Ang.)
 Radius for N  used is    3.5149 Bohr (=   1.8600 Ang.)
 Radius for H  used is    2.4944 Bohr (=   1.3200 Ang.)
Calculating surface                               ...        done! (  0.0s)
GEPOL surface points                              ...         4827
GEPOL Volume                                      ...    5552.5406
GEPOL Surface-area                                ...    2491.2154
Calculating surface distance matrix               ...        done! (  0.4s)
Performing Cholesky decomposition & store         ...        done! (  1.5s)
Overall time for CPCM initialization              ...                 1.9s
--------------
SCF ITERATIONS
--------------
ITER       Energy         Delta-E        Max-DP      RMS-DP      [F,P]     Damp
               ***  Starting incremental Fock matrix formation  ***
  0  -2027.3969907979   0.0000000000007386551.63297491 10767.05243724  0.1784895 0.7000
  1  -2025.3979263344   1.9990644635538767708.93184528 13205.70328954  0.1003832 0.7000
                               ***Turning on DIIS***
  2  -2018.6378736681   6.76005266624425066072.80884266 35879.58395771  0.0570571 0.0000
  3  -1992.7245767198  25.913296948367196855.88456556 370.42461776  0.1301394 0.7000
  4  -1992.6092426899   0.115334029846279791.27262634 1168.28004593  0.1227503 0.7000
  5  -1992.2198601482   0.3893825417001230503.22759099 2799.75385620  0.1155545 0.7000
  6  -1991.7984737414   0.4213864068781818701.17887746 4308.19171934  0.1093026 0.7000
  7  -1991.7218599390   0.0766138023122108870.33837025 8789.26148725  0.1037312 0.7000
  8  -1981.6699597234  10.0519002156801430477.92548045 5686.18913686  0.1926641 0.7000
  9  -1974.9786123333   6.691347390105944434.01197001 3546.47843111  0.2423800 0.7000
 10  -1973.4379728846   1.5406394487071023693.74631928 3350.05510601  0.2153401 0.7000
 11  -1974.8947430543  -1.4567701697021350105.64749781 3921.30922003  0.1492924 0.7000
 12  -1975.5371234732  -0.6423804189191146915.04321401 3966.58226942  0.1043130 0.7000
 13  -1975.9313545420  -0.3942310688123443082.55363853 11449.02861335  0.0605350 0.0000
 14  -1977.8304080725  -1.8990535305381443513.20616320 4607.32114277  0.0315875 0.0000
 15  -1977.8247483835   0.0056596890261741562.75251232 3784.72506116  0.0153692 0.0000
 16  -1977.7046868730   0.1200615104712016339.37699164 5503.11716664  0.0124361 0.0000
 17  -1976.9362505859   0.7684362870951566884.48174658 2823.99022123  0.0054325 0.0000
 18  -1975.4956710443   1.440579541640280741.93601003 1164.66110060  0.0282924 0.0000
 19  -1974.1577195278   1.337951516500801983.95496684 1520.15064620  0.0638942 0.0000
               *** Restarting incremental Fock matrix formation ***
                                   *** Resetting DIIS ***

 WARNING: the maximum gradient error descreased on average only by a factor   1.1
          during the last 20 iterations

                      *** Initiating the TRAH-SCF procedure ***


TRAH GRIDX
----------

General Integration Accuracy     IntAcc      ... 3.067
Radial Grid Type                 RadialGrid  ... OptM3 with GC (2021)
Angular Grid (max. ang.)         AngularGrid ... 2 (Lebedev-110)
Angular grid pruning method      GridPruning ... 4 (adaptive)
Weight generation scheme         WeightScheme... Becke
Basis function cutoff            BFCut       ... 1.0000e-10
Integration weight cutoff        WCut        ... 1.0000e-14
Angular grids for H and He will be reduced by one unit
Partially contracted basis set               ... on
Rotationally invariant grid construction     ... off

Total number of grid points                  ...    74718
Total number of batches                      ...     1221
Average number of points per batch           ...       61
Average number of grid points per atom       ...      725


TRAH GRID
---------

General Integration Accuracy     IntAcc      ... 3.467
Radial Grid Type                 RadialGrid  ... OptM3 with GC (2021)
Angular Grid (max. ang.)         AngularGrid ... 3 (Lebedev-194)
Angular grid pruning method      GridPruning ... 4 (adaptive)
Weight generation scheme         WeightScheme... Becke
Basis function cutoff            BFCut       ... 1.0000e-10
Integration weight cutoff        WCut        ... 1.0000e-14
Angular grids for H and He will be reduced by one unit
Partially contracted basis set               ... off
Rotationally invariant grid construction     ... off

Total number of grid points                  ...   185654
Total number of batches                      ...     2953
Average number of points per batch           ...       62
Average number of grid points per atom       ...     1802

 --------------------------------------------------------------------------------------------
   Iter.        energy            ||Error||_2        Shift      TRadius  Mac/Mic        Rej.
 --------------------------------------------------------------------------------------------
WARNING: 15283 diagonal Hessian elements are negative!
    0      -1973.032238747868     3.539566e+01                     0.400 (TRAH MAcro)   No
WARNING : negative HOMO - LUMO gap : -9.116658
    0     dE    -1.352382e+01     8.406066e+00    -8.0569e+01      0.400 (TRAH MIcro)
    0     dE    -1.376955e+01     5.085361e+00    -8.5461e+01      0.400 (TRAH MIcro)
    0     dE    -1.377632e+01     4.919152e+00    -8.5658e+01      0.400 (TRAH MIcro)
    0     dE    -1.379416e+01     4.194445e+00    -8.6081e+01      0.400 (TRAH MIcro)
    0     dE    -1.385843e+01     6.412116e-01    -8.6765e+01      0.400 (TRAH MIcro)
    0     dE    -1.386162e+01     1.872355e-01    -8.6788e+01      0.400 (TRAH MIcro)
    0     dE    -1.386160e+01     1.815867e-01    -8.6788e+01      0.400 (TRAH MIcro)
    0     dE    -1.386168e+01     2.057930e-01    -8.6787e+01      0.400 (TRAH MIcro)
    0     dE    -1.386178e+01     2.488359e-01    -8.6791e+01      0.400 (TRAH MIcro)
    0     dE    -1.386183e+01     2.751424e-01    -8.6791e+01      0.400 (TRAH MIcro)
    0     dE    -1.386184e+01     2.850085e-01    -8.6791e+01      0.400 (TRAH MIcro)
    0     dE    -1.386183e+01     2.850472e-01    -8.6791e+01      0.400 (TRAH MIcro)
    0     dE    -1.386183e+01     2.911238e-01    -8.6791e+01      0.400 (TRAH MIcro)
    0     dE    -1.386196e+01     3.282803e-01    -8.6792e+01      0.400 (TRAH MIcro)
WARNING: 13188 diagonal Hessian elements are negative!
    1      -1976.524252886412     3.180508e+01                     0.400 (TRAH MAcro)   No
WARNING : negative HOMO - LUMO gap : -5.996533
    1     dE    -1.152028e+01     6.554146e+00    -6.4497e+01      0.400 (TRAH MIcro)
    1     dE    -1.167113e+01     4.570526e+00    -6.7585e+01      0.400 (TRAH MIcro)
    1     dE    -1.168070e+01     4.371814e+00    -6.7868e+01      0.400 (TRAH MIcro)
    1     dE    -1.173267e+01     2.520976e+00    -6.8733e+01      0.400 (TRAH MIcro)
    1     dE    -1.177396e+01     2.919086e-01    -6.9244e+01      0.400 (TRAH MIcro)
    1     dE    -1.177422e+01     1.576748e-01    -6.9246e+01      0.400 (TRAH MIcro)
    1     dE    -1.177426e+01     1.731718e-01    -6.9247e+01      0.400 (TRAH MIcro)
    1     dE    -1.177426e+01     1.726205e-01    -6.9247e+01      0.400 (TRAH MIcro)
    1     dE    -1.177430e+01     2.056987e-01    -6.9249e+01      0.400 (TRAH MIcro)
    1     dE    -1.177432e+01     2.105084e-01    -6.9249e+01      0.400 (TRAH MIcro)
    1     dE    -1.177427e+01     2.205103e-01    -6.9250e+01      0.400 (TRAH MIcro)
    1     dE    -1.177430e+01     2.270655e-01    -6.9250e+01      0.400 (TRAH MIcro)
    1     dE    -1.177430e+01     2.286601e-01    -6.9250e+01      0.400 (TRAH MIcro)
    1     dE    -1.177437e+01     2.419144e-01    -6.9250e+01      0.400 (TRAH MIcro)
WARNING: 10991 diagonal Hessian elements are negative!
    2      -1979.691086104737     2.560893e+01                     0.400 (TRAH MAcro)   No
WARNING : negative HOMO - LUMO gap : -3.880094
    2     dE    -8.761318e+00     6.947886e+00    -4.5495e+01      0.400 (TRAH MIcro)
    2     dE    -8.917415e+00     5.235866e+00    -4.8742e+01      0.400 (TRAH MIcro)
    2     dE    -8.950462e+00     4.630923e+00    -4.9485e+01      0.400 (TRAH MIcro)
    2     dE    -9.086182e+00     1.239651e+00    -5.1478e+01      0.400 (TRAH MIcro)
    2     dE    -9.104520e+00     2.273545e-01    -5.1693e+01      0.400 (TRAH MIcro)
    2     dE    -9.104738e+00     1.826203e-01    -5.1694e+01      0.400 (TRAH MIcro)
    2     dE    -9.104755e+00     1.852103e-01    -5.1694e+01      0.400 (TRAH MIcro)
    2     dE    -9.105119e+00     2.269944e-01    -5.1694e+01      0.400 (TRAH MIcro)
    2     dE    -9.105341e+00     2.540361e-01    -5.1694e+01      0.400 (TRAH MIcro)
    2     dE    -9.105347e+00     2.544864e-01    -5.1694e+01      0.400 (TRAH MIcro)
    2     dE    -9.105364e+00     2.567369e-01    -5.1694e+01      0.400 (TRAH MIcro)
    2     dE    -9.105347e+00     2.580181e-01    -5.1694e+01      0.400 (TRAH MIcro)
    2     dE    -9.105312e+00     2.631425e-01    -5.1694e+01      0.400 (TRAH MIcro)
    2     dE    -9.105382e+00     2.686473e-01    -5.1695e+01      0.400 (TRAH MIcro)
WARNING: 9270 diagonal Hessian elements are negative!
    3      -1982.644867431866     1.952018e+01                     0.400 (TRAH MAcro)   No
WARNING : negative HOMO - LUMO gap : -2.956189
    3     dE    -6.598692e+00     6.468503e+00    -3.3683e+01      0.400 (TRAH MIcro)
    3     dE    -6.752641e+00     4.801546e+00    -3.6834e+01      0.400 (TRAH MIcro)
    3     dE    -6.812547e+00     3.663228e+00    -3.7992e+01      0.400 (TRAH MIcro)
    3     dE    -6.935556e+00     5.191143e-01    -3.9542e+01      0.400 (TRAH MIcro)
    3     dE    -6.939578e+00     2.242613e-01    -3.9578e+01      0.400 (TRAH MIcro)
    3     dE    -6.939680e+00     2.231183e-01    -3.9579e+01      0.400 (TRAH MIcro)
    3     dE    -6.939681e+00     2.287698e-01    -3.9580e+01      0.400 (TRAH MIcro)
    3     dE    -6.939687e+00     2.292410e-01    -3.9580e+01      0.400 (TRAH MIcro)
    3     dE    -6.939695e+00     2.278737e-01    -3.9579e+01      0.400 (TRAH MIcro)
    3     dE    -6.939715e+00     2.307977e-01    -3.9580e+01      0.400 (TRAH MIcro)
    3     dE    -6.939765e+00     2.423218e-01    -3.9580e+01      0.400 (TRAH MIcro)
    3     dE    -6.939816e+00     2.609116e-01    -3.9578e+01      0.400 (TRAH MIcro)
    3     dE    -6.939818e+00     2.659126e-01    -3.9578e+01      0.400 (TRAH MIcro)
    3     dE    -6.939821e+00     2.670537e-01    -3.9578e+01      0.400 (TRAH MIcro)
WARNING: 7769 diagonal Hessian elements are negative!
    4      -1985.339212935958     1.517126e+01                     0.400 (TRAH MAcro)   No
WARNING : negative HOMO - LUMO gap : -2.199762
    4     dE    -5.221859e+00     4.896665e+00    -2.7345e+01      0.400 (TRAH MIcro)
    4     dE    -5.329673e+00     3.645418e+00    -2.9525e+01      0.400 (TRAH MIcro)
    4     dE    -5.385529e+00     2.419505e+00    -3.0538e+01      0.400 (TRAH MIcro)
    4     dE    -5.454902e+00     2.753382e-01    -3.1363e+01      0.400 (TRAH MIcro)
    4     dE    -5.455873e+00     1.612734e-01    -3.1370e+01      0.400 (TRAH MIcro)
    4     dE    -5.455864e+00     1.593214e-01    -3.1370e+01      0.400 (TRAH MIcro)
    4     dE    -5.455904e+00     1.404122e-01    -3.1369e+01      0.400 (TRAH MIcro)
    4     dE    -5.455911e+00     1.394066e-01    -3.1369e+01      0.400 (TRAH MIcro)
    4     dE    -5.456038e+00     1.644967e-01    -3.1371e+01      0.400 (TRAH MIcro)
    4     dE    -5.456106e+00     1.750600e-01    -3.1372e+01      0.400 (TRAH MIcro)
    4     dE    -5.456351e+00     2.411339e-01    -3.1374e+01      0.400 (TRAH MIcro)
    4     dE    -5.456363e+00     2.471327e-01    -3.1374e+01      0.400 (TRAH MIcro)
    4     dE    -5.456379e+00     2.483619e-01    -3.1374e+01      0.400 (TRAH MIcro)
    4     dE    -5.456524e+00     2.717216e-01    -3.1376e+01      0.400 (TRAH MIcro)
WARNING: 6555 diagonal Hessian elements are negative!
    5      -1987.743080725957     1.204851e+01                     0.400 (TRAH MAcro)   No
WARNING : negative HOMO - LUMO gap : -1.771321
    5     dE    -4.182808e+00     3.597458e+00    -2.2164e+01      0.400 (TRAH MIcro)
    5     dE    -4.256936e+00     2.709226e+00    -2.3670e+01      0.400 (TRAH MIcro)
    5     dE    -4.310702e+00     1.413562e+00    -2.4594e+01      0.400 (TRAH MIcro)
    5     dE    -4.344425e+00     1.815546e-01    -2.4976e+01      0.400 (TRAH MIcro)
    5     dE    -4.344600e+00     1.343870e-01    -2.4976e+01      0.400 (TRAH MIcro)
    5     dE    -4.344676e+00     1.677706e-01    -2.4978e+01      0.400 (TRAH MIcro)
    5     dE    -4.344718e+00     2.141112e-01    -2.4980e+01      0.400 (TRAH MIcro)
    5     dE    -4.344760e+00     2.268063e-01    -2.4981e+01      0.400 (TRAH MIcro)
    5     dE    -4.344773e+00     2.284875e-01    -2.4981e+01      0.400 (TRAH MIcro)
    5     dE    -4.344908e+00     2.541423e-01    -2.4983e+01      0.400 (TRAH MIcro)
    5     dE    -4.344962e+00     2.714391e-01    -2.4983e+01      0.400 (TRAH MIcro)
    5     dE    -4.344987e+00     2.752991e-01    -2.4983e+01      0.400 (TRAH MIcro)
    5     dE    -4.345105e+00     2.863252e-01    -2.4985e+01      0.400 (TRAH MIcro)
    5     dE    -4.345123e+00     2.857291e-01    -2.4986e+01      0.400 (TRAH MIcro)
WARNING: 5515 diagonal Hessian elements are negative!
    6      -1989.920652728103     9.632151e+00                     0.400 (TRAH MAcro)   No
WARNING : negative HOMO - LUMO gap : -1.558328
    6     dE    -3.348638e+00     2.796741e+00    -1.7777e+01      0.400 (TRAH MIcro)
    6     dE    -3.410458e+00     2.051099e+00    -1.9029e+01      0.400 (TRAH MIcro)
    6     dE    -3.453943e+00     9.329097e-01    -1.9758e+01      0.400 (TRAH MIcro)
    6     dE    -3.472777e+00     1.421994e-01    -1.9958e+01      0.400 (TRAH MIcro)
    6     dE    -3.472828e+00     1.203953e-01    -1.9958e+01      0.400 (TRAH MIcro)
    6     dE    -3.472945e+00     1.720344e-01    -1.9961e+01      0.400 (TRAH MIcro)
    6     dE    -3.473251e+00     2.910141e-01    -1.9967e+01      0.400 (TRAH MIcro)
    6     dE    -3.473438e+00     3.170560e-01    -1.9971e+01      0.400 (TRAH MIcro)
    6     dE    -3.473440e+00     3.170210e-01    -1.9971e+01      0.400 (TRAH MIcro)
    6     dE    -3.473476e+00     3.241697e-01    -1.9971e+01      0.400 (TRAH MIcro)
    6     dE    -3.473501e+00     3.286789e-01    -1.9971e+01      0.400 (TRAH MIcro)
    6     dE    -3.473628e+00     3.373862e-01    -1.9973e+01      0.400 (TRAH MIcro)
    6     dE    -3.473650e+00     3.375288e-01    -1.9974e+01      0.400 (TRAH MIcro)
    6     dE    -3.473658e+00     3.373371e-01    -1.9974e+01      0.400 (TRAH MIcro)
WARNING: 4581 diagonal Hessian elements are negative!
    7      -1991.930746071562     7.683704e+00                     0.400 (TRAH MAcro)   No
WARNING : negative HOMO - LUMO gap : -1.399153
    7     dE    -2.662043e+00     2.465794e+00    -1.4066e+01      0.400 (TRAH MIcro)
    7     dE    -2.719222e+00     1.771960e+00    -1.5209e+01      0.400 (TRAH MIcro)
    7     dE    -2.758341e+00     6.272269e-01    -1.5824e+01      0.400 (TRAH MIcro)
    7     dE    -2.768474e+00     1.180840e-01    -1.5916e+01      0.400 (TRAH MIcro)
    7     dE    -2.768538e+00     1.002898e-01    -1.5916e+01      0.400 (TRAH MIcro)
    7     dE    -2.768769e+00     1.896616e-01    -1.5921e+01      0.400 (TRAH MIcro)
    7     dE    -2.769173e+00     3.080297e-01    -1.5928e+01      0.400 (TRAH MIcro)
    7     dE    -2.769295e+00     3.247704e-01    -1.5930e+01      0.400 (TRAH MIcro)
    7     dE    -2.769297e+00     3.248130e-01    -1.5930e+01      0.400 (TRAH MIcro)
    7     dE    -2.769316e+00     3.257531e-01    -1.5930e+01      0.400 (TRAH MIcro)
    7     dE    -2.769324e+00     3.259174e-01    -1.5930e+01      0.400 (TRAH MIcro)
    7     dE    -2.769414e+00     3.305278e-01    -1.5932e+01      0.400 (TRAH MIcro)
    7     dE    -2.769420e+00     3.329843e-01    -1.5932e+01      0.400 (TRAH MIcro)
    7     dE    -2.769427e+00     3.319190e-01    -1.5932e+01      0.400 (TRAH MIcro)
WARNING: 3807 diagonal Hessian elements are negative!
    8      -1993.797352905157     6.189513e+00                     0.400 (TRAH MAcro)   No
WARNING : negative HOMO - LUMO gap : -1.254562
    8     dE    -2.137914e+00     2.236519e+00    -1.1250e+01      0.400 (TRAH MIcro)
    8     dE    -2.179257e+00     1.654459e+00    -1.2086e+01      0.400 (TRAH MIcro)
    8     dE    -2.220045e+00     4.761090e-01    -1.2707e+01      0.400 (TRAH MIcro)
    8     dE    -2.227099e+00     1.331908e-01    -1.2768e+01      0.400 (TRAH MIcro)
    8     dE    -2.227108e+00     1.431288e-01    -1.2769e+01      0.400 (TRAH MIcro)
    8     dE    -2.228077e+00     3.043591e-01    -1.2792e+01      0.400 (TRAH MIcro)
    8     dE    -2.228769e+00     4.326371e-01    -1.2803e+01      0.400 (TRAH MIcro)
    8     dE    -2.228907e+00     4.478156e-01    -1.2805e+01      0.400 (TRAH MIcro)
    8     dE    -2.228908e+00     4.478530e-01    -1.2805e+01      0.400 (TRAH MIcro)
    8     dE    -2.228927e+00     4.512327e-01    -1.2805e+01      0.400 (TRAH MIcro)
    8     dE    -2.228930e+00     4.523030e-01    -1.2806e+01      0.400 (TRAH MIcro)
    8     dE    -2.228936e+00     4.529139e-01    -1.2806e+01      0.400 (TRAH MIcro)
    8     dE    -2.228939e+00     4.534180e-01    -1.2806e+01      0.400 (TRAH MIcro)
    8     dE    -2.228936e+00     4.537107e-01    -1.2806e+01      0.400 (TRAH MIcro)
WARNING: 3160 diagonal Hessian elements are negative!
    9      -1995.535035390228     4.959706e+00                     0.480 (TRAH MAcro)   No
WARNING : negative HOMO - LUMO gap : -1.145172
    9     dE    -1.983951e+00     2.186322e+00    -6.8897e+00      0.480 (TRAH MIcro)
    9     dE    -1.942642e+00     1.364747e+00    -8.4564e+00      0.451 (TRAH MIcro)
    9     dE    -2.014419e+00     4.431319e-01    -8.5958e+00      0.461 (TRAH MIcro)
    9     dE    -2.016946e+00     2.033660e-01    -8.6170e+00      0.460 (TRAH MIcro)
    9     dE    -2.016644e+00     1.948906e-01    -8.6171e+00      0.460 (TRAH MIcro)
    9     dE    -2.018302e+00     2.408580e-01    -8.6186e+00      0.461 (TRAH MIcro)
    9     dE    -2.020488e+00     3.791528e-01    -8.6233e+00      0.461 (TRAH MIcro)
    9     dE    -2.020654e+00     4.046808e-01    -8.6242e+00      0.461 (TRAH MIcro)
    9     dE    -2.020666e+00     4.045116e-01    -8.6242e+00      0.461 (TRAH MIcro)
    9     dE    -2.020712e+00     4.063253e-01    -8.6243e+00      0.461 (TRAH MIcro)
    9     dE    -2.020707e+00     4.086597e-01    -8.6243e+00      0.461 (TRAH MIcro)
    9     dE    -2.020701e+00     4.090366e-01    -8.6243e+00      0.461 (TRAH MIcro)
    9     dE    -2.020701e+00     4.090558e-01    -8.6243e+00      0.461 (TRAH MIcro)
    9     dE    -2.020706e+00     4.083940e-01    -8.6243e+00      0.461 (TRAH MIcro)
WARNING: 2530 diagonal Hessian elements are negative!
   10      -1997.318113123504     3.823695e+00                     0.576 (TRAH MAcro)   No
WARNING : negative HOMO - LUMO gap : -1.025583
   10     dE    -1.690737e+00     3.105076e+00    -3.5537e+00      0.576 (TRAH MIcro)
   10     dE    -1.857546e+00     1.501618e+00    -5.0810e+00      0.576 (TRAH MIcro)
   10     dE    -1.888749e+00     6.615915e-01    -5.3045e+00      0.576 (TRAH MIcro)
   10     dE    -1.890921e+00     5.116598e-01    -5.2924e+00      0.576 (TRAH MIcro)
   10     dE    -1.892564e+00     6.399967e-01    -5.3453e+00      0.576 (TRAH MIcro)
   10     dE    -1.893513e+00     7.112036e-01    -5.3675e+00      0.576 (TRAH MIcro)
   10     dE    -1.893873e+00     7.208362e-01    -5.3584e+00      0.576 (TRAH MIcro)
   10     dE    -1.893885e+00     7.223807e-01    -5.3615e+00      0.576 (TRAH MIcro)
   10     dE    -1.894024e+00     7.320221e-01    -5.3693e+00      0.576 (TRAH MIcro)
   10     dE    -1.894142e+00     7.424297e-01    -5.3716e+00      0.576 (TRAH MIcro)
   10     dE    -1.894142e+00     7.430504e-01    -5.3713e+00      0.576 (TRAH MIcro)
   10     dE    -1.894143e+00     7.430330e-01    -5.3714e+00      0.576 (TRAH MIcro)
   10     dE    -1.894215e+00     7.457155e-01    -5.3746e+00      0.576 (TRAH MIcro)
   10     dE    -1.894365e+00     7.531563e-01    -5.3754e+00      0.576 (TRAH MIcro)
WARNING: 1910 diagonal Hessian elements are negative!
   11      -1999.239080241353     2.948233e+00                     0.691 (TRAH MAcro)   No
WARNING : negative HOMO - LUMO gap : -0.889447
   11     dE    -1.251723e+00     5.538716e+00    -1.8153e+00      0.616 (TRAH MIcro)
   11     dE    -1.937449e+00     1.316028e+00    -4.6038e+00      0.691 (TRAH MIcro)
   11     dE    -1.978213e+00     8.152757e-01    -4.8783e+00      0.691 (TRAH MIcro)
   11     dE    -1.971477e+00     7.121951e-01    -4.8791e+00      0.689 (TRAH MIcro)
   11     dE    -1.979327e+00     7.797100e-01    -4.8800e+00      0.691 (TRAH MIcro)
   11     dE    -1.979384e+00     7.921853e-01    -4.8814e+00      0.691 (TRAH MIcro)
   11     dE    -1.979487e+00     7.868100e-01    -4.8818e+00      0.691 (TRAH MIcro)
   11     dE    -1.979774e+00     7.946581e-01    -4.8852e+00      0.691 (TRAH MIcro)
   11     dE    -1.980180e+00     8.103541e-01    -4.8893e+00      0.691 (TRAH MIcro)
   11     dE    -1.980293e+00     8.123759e-01    -4.8895e+00      0.691 (TRAH MIcro)
   11     dE    -1.980302e+00     8.133831e-01    -4.8897e+00      0.691 (TRAH MIcro)
   11     dE    -1.980352e+00     8.187097e-01    -4.8911e+00      0.691 (TRAH MIcro)
   11     dE    -1.980440e+00     8.221493e-01    -4.8918e+00      0.691 (TRAH MIcro)
   11     dE    -1.980448e+00     8.222563e-01    -4.8918e+00      0.691 (TRAH MIcro)
WARNING: 1236 diagonal Hessian elements are negative!
   12      -2001.395597396526     3.016442e+00                     0.829 (TRAH MAcro)   No
WARNING : negative HOMO - LUMO gap : -0.747778
   12     dE    -9.135117e-01     9.284667e+00    -1.4746e+00      0.489 (TRAH MIcro)
   12     dE    -2.569390e+00     1.739981e+00    -4.3792e+00      0.829 (TRAH MIcro)
   12     dE    -2.627313e+00     1.003991e+00    -4.6141e+00      0.829 (TRAH MIcro)
   12     dE    -2.593613e+00     6.242388e-01    -4.6205e+00      0.819 (TRAH MIcro)
   12     dE    -2.589905e+00     5.955296e-01    -4.6206e+00      0.818 (TRAH MIcro)
   12     dE    -2.592374e+00     6.246929e-01    -4.6209e+00      0.819 (TRAH MIcro)
   12     dE    -2.592202e+00     6.257209e-01    -4.6209e+00      0.819 (TRAH MIcro)
   12     dE    -2.595792e+00     6.303249e-01    -4.6213e+00      0.820 (TRAH MIcro)
   12     dE    -2.599919e+00     6.483415e-01    -4.6220e+00      0.821 (TRAH MIcro)
   12     dE    -2.599868e+00     6.550769e-01    -4.6223e+00      0.820 (TRAH MIcro)
   12     dE    -2.599686e+00     6.555842e-01    -4.6223e+00      0.820 (TRAH MIcro)
   12     dE    -2.601110e+00     6.594398e-01    -4.6226e+00      0.821 (TRAH MIcro)
   12     dE    -2.601657e+00     6.642663e-01    -4.6227e+00      0.821 (TRAH MIcro)
   12     dE    -2.601685e+00     6.654459e-01    -4.6227e+00      0.821 (TRAH MIcro)
WARNING: 649 diagonal Hessian elements are negative!
   13      -2004.297388061817     3.230010e+00                     0.995 (TRAH MAcro)   No
WARNING : negative HOMO - LUMO gap : -0.618880
   13     dE    -9.104979e-01     9.420732e+00    -1.4985e+00      0.464 (TRAH MIcro)
   13     dE    -3.051956e+00     2.036849e+00    -3.3997e+00      0.995 (TRAH MIcro)
   13     dE    -3.134366e+00     9.855383e-01    -3.5992e+00      0.995 (TRAH MIcro)
   13     dE    -3.137915e+00     7.249793e-01    -3.5887e+00      0.995 (TRAH MIcro)
   13     dE    -3.138867e+00     8.226174e-01    -3.5980e+00      0.995 (TRAH MIcro)
   13     dE    -3.141364e+00     8.978447e-01    -3.5967e+00      0.995 (TRAH MIcro)
   13     dE    -3.141548e+00     8.959572e-01    -3.5941e+00      0.995 (TRAH MIcro)
   13     dE    -3.141552e+00     8.986050e-01    -3.5946e+00      0.995 (TRAH MIcro)
   13     dE    -3.141952e+00     9.231252e-01    -3.5956e+00      0.995 (TRAH MIcro)
   13     dE    -3.142752e+00     9.547666e-01    -3.5944e+00      0.995 (TRAH MIcro)
   13     dE    -3.143363e+00     9.677000e-01    -3.5917e+00      0.995 (TRAH MIcro)
   13     dE    -3.143448e+00     9.661102e-01    -3.5910e+00      0.995 (TRAH MIcro)
   13     dE    -3.143504e+00     9.708391e-01    -3.5911e+00      0.995 (TRAH MIcro)
   13     dE    -3.143605e+00     9.768584e-01    -3.5907e+00      0.995 (TRAH MIcro)
WARNING: 282 diagonal Hessian elements are negative!
   14      -2007.847123689801     2.946442e+00                     1.194 (TRAH MAcro)   No
WARNING : negative HOMO - LUMO gap : -0.513004
   14     dE    -4.120540e-01     7.547624e+00    -7.7126e-01      0.262 (TRAH MIcro)
   14     dE    -2.350956e+00     1.290149e+00    -2.3651e+00      0.994 (TRAH MIcro)
   14     dE    -2.756726e+00     6.743114e-01    -2.4668e+00      1.111 (TRAH MIcro)
   14     dE    -2.887076e+00     4.585095e-01    -2.4766e+00      1.154 (TRAH MIcro)
   14     dE    -2.906834e+00     4.171026e-01    -2.4778e+00      1.160 (TRAH MIcro)
   14     dE    -2.923087e+00     4.498541e-01    -2.4793e+00      1.165 (TRAH MIcro)
   14     dE    -2.931969e+00     4.638294e-01    -2.4796e+00      1.168 (TRAH MIcro)
   14     dE    -2.935586e+00     4.580614e-01    -2.4797e+00      1.169 (TRAH MIcro)
   14     dE    -2.934812e+00     4.484491e-01    -2.4799e+00      1.169 (TRAH MIcro)
   14     dE    -2.933856e+00     4.448931e-01    -2.4800e+00      1.169 (TRAH MIcro)
   14     dE    -2.934457e+00     4.567566e-01    -2.4805e+00      1.169 (TRAH MIcro)
   14     dE    -2.933946e+00     4.511786e-01    -2.4808e+00      1.168 (TRAH MIcro)
   14     dE    -2.933932e+00     4.508300e-01    -2.4808e+00      1.168 (TRAH MIcro)
   14     dE    -2.933680e+00     4.622452e-01    -2.4811e+00      1.168 (TRAH MIcro)
WARNING: 78 diagonal Hessian elements are negative!
   15      -2011.120090673201     2.200895e+00                     1.433 (TRAH MAcro)   No
WARNING : negative HOMO - LUMO gap : -0.385032
   15     dE    -2.170361e-01     4.902955e+00    -4.1890e-01      0.190 (TRAH MIcro)
   15     dE    -1.428688e+00     1.085334e+00    -1.5327e+00      0.930 (TRAH MIcro)
   15     dE    -2.800891e+00     1.326712e+00    -1.8775e+00      1.433 (TRAH MIcro)
   15     dE    -2.830715e+00     5.852143e-01    -1.9283e+00      1.433 (TRAH MIcro)
   15     dE    -2.832013e+00     4.929658e-01    -1.9296e+00      1.433 (TRAH MIcro)
   15     dE    -2.841734e+00     6.313026e-01    -1.9478e+00      1.433 (TRAH MIcro)
   15     dE    -2.846857e+00     6.984376e-01    -1.9605e+00      1.433 (TRAH MIcro)
   15     dE    -2.847285e+00     6.845771e-01    -1.9617e+00      1.433 (TRAH MIcro)
   15     dE    -2.847943e+00     7.208107e-01    -1.9626e+00      1.433 (TRAH MIcro)
   15     dE    -2.847979e+00     7.216017e-01    -1.9625e+00      1.433 (TRAH MIcro)
   15     dE    -2.848074e+00     7.310011e-01    -1.9630e+00      1.433 (TRAH MIcro)
   15     dE    -2.848111e+00     7.320230e-01    -1.9631e+00      1.433 (TRAH MIcro)
   15     dE    -2.848386e+00     7.440755e-01    -1.9639e+00      1.433 (TRAH MIcro)
   15     dE    -2.848387e+00     7.437529e-01    -1.9639e+00      1.433 (TRAH MIcro)
WARNING: 18 diagonal Hessian elements are negative!
   16      -2014.215982020301     1.966033e+00                     1.720 (TRAH MAcro)   No
WARNING : negative HOMO - LUMO gap : -0.245069
   16     dE    -1.229305e-01     3.038156e+00    -2.4219e-01      0.123 (TRAH MIcro)
   16     dE    -8.245846e-01     1.094664e+00    -9.9279e-01      0.813 (TRAH MIcro)
   16     dE    -9.108339e-01     5.648257e-01    -1.0596e+00      0.848 (TRAH MIcro)
   16     dE    -1.308261e+00     7.614116e-01    -1.1320e+00      1.145 (TRAH MIcro)
   16     dE    -1.812776e+00     3.755567e-01    -1.1723e+00      1.447 (TRAH MIcro)
   16     dE    -1.917134e+00     3.199920e-01    -1.1788e+00      1.501 (TRAH MIcro)
   16     dE    -1.970647e+00     2.436070e-01    -1.1804e+00      1.529 (TRAH MIcro)
   16     dE    -2.011677e+00     2.316806e-01    -1.1817e+00      1.551 (TRAH MIcro)
   16     dE    -2.031837e+00     2.323286e-01    -1.1824e+00      1.561 (TRAH MIcro)
   16     dE    -2.025320e+00     2.660730e-01    -1.1826e+00      1.557 (TRAH MIcro)
   16     dE    -2.001320e+00     3.050958e-01    -1.1835e+00      1.543 (TRAH MIcro)
   16     dE    -2.007468e+00     3.179266e-01    -1.1835e+00      1.547 (TRAH MIcro)
   16     dE    -2.005912e+00     3.187641e-01    -1.1836e+00      1.546 (TRAH MIcro)
   16     dE    -2.003715e+00     3.100333e-01    -1.1837e+00      1.545 (TRAH MIcro)
   17      -2016.915393094560     1.779511e+00                     2.064 (TRAH MAcro)   No
WARNING : small    HOMO - LUMO gap : 0.001305
   17     dE    -6.661669e-02     1.489893e+00    -1.3250e-01      0.074 (TRAH MIcro)
   17     dE    -1.882750e-01     5.518807e-01    -3.2389e-01      0.403 (TRAH MIcro)
   17     dE    -2.028622e-01     2.398523e-01    -3.4321e-01      0.427 (TRAH MIcro)
   17     dE    -2.031336e-01     2.032703e-01    -3.4342e-01      0.428 (TRAH MIcro)
   17     dE    -2.031869e-01     2.196268e-01    -3.4359e-01      0.427 (TRAH MIcro)
   17     dE    -2.034177e-01     2.388323e-01    -3.4390e-01      0.428 (TRAH MIcro)
   17     dE    -2.038163e-01     2.704076e-01    -3.4450e-01      0.428 (TRAH MIcro)
   17     dE    -2.039027e-01     2.725985e-01    -3.4452e-01      0.429 (TRAH MIcro)
   17     dE    -2.085796e-01     3.515412e-01    -3.4716e-01      0.449 (TRAH MIcro)
   17     dE    -2.100833e-01     3.578270e-01    -3.4793e-01      0.456 (TRAH MIcro)
   17     dE    -2.103747e-01     3.474007e-01    -3.4810e-01      0.457 (TRAH MIcro)
   17     dE    -2.103814e-01     3.502956e-01    -3.4814e-01      0.457 (TRAH MIcro)
   17     dE    -2.105590e-01     3.551418e-01    -3.4838e-01      0.457 (TRAH MIcro)
   17     dE    -2.106338e-01     3.566255e-01    -3.4840e-01      0.457 (TRAH MIcro)
   18      -2017.138198858390     7.254653e-01                     2.477 (TRAH MAcro)   No
   18     dE    -1.312656e-02     5.164947e-01    -2.6219e-02      0.036 (TRAH MIcro)
   18     dE    -3.999706e-02     3.207956e-01    -7.3617e-02      0.294 (TRAH MIcro)
   18     dE    -4.404433e-02     2.019551e-01    -7.8949e-02      0.340 (TRAH MIcro)
   18     dE    -4.486291e-02     1.436697e-01    -7.9609e-02      0.356 (TRAH MIcro)
   18     dE    -4.527563e-02     1.395163e-01    -7.9833e-02      0.366 (TRAH MIcro)
   18     dE    -4.674086e-02     1.872598e-01    -8.0896e-02      0.394 (TRAH MIcro)
   18     dE    -4.759700e-02     1.969079e-01    -8.1473e-02      0.410 (TRAH MIcro)
   18     dE    -4.751273e-02     2.011848e-01    -8.1494e-02      0.407 (TRAH MIcro)
   18     dE    -4.745282e-02     2.061589e-01    -8.1595e-02      0.404 (TRAH MIcro)
   18     dE    -4.745087e-02     2.055012e-01    -8.1597e-02      0.404 (TRAH MIcro)
   18     dE    -4.744962e-02     2.067374e-01    -8.1599e-02      0.404 (TRAH MIcro)
   18     dE    -4.752026e-02     2.092176e-01    -8.1655e-02      0.405 (TRAH MIcro)
   18     dE    -4.753417e-02     2.112855e-01    -8.1665e-02      0.405 (TRAH MIcro)
   18     dE    -4.754151e-02     2.113656e-01    -8.1682e-02      0.405 (TRAH MIcro)
   19      -2017.214675696171     4.953748e-01                     2.972 (TRAH MAcro)   No
   19     dE    -6.350658e-03     4.371941e-01    -1.2693e-02      0.026 (TRAH MIcro)
   19     dE    -1.852050e-02     2.200363e-01    -3.5687e-02      0.195 (TRAH MIcro)
   19     dE    -2.167619e-02     1.384860e-01    -4.0180e-02      0.281 (TRAH MIcro)
   19     dE    -2.341313e-02     6.127861e-02    -4.2052e-02      0.337 (TRAH MIcro)
   19     dE    -2.498148e-02     8.911403e-02    -4.3522e-02      0.385 (TRAH MIcro)
   19     dE    -2.770974e-02     1.226123e-01    -4.5818e-02      0.458 (TRAH MIcro)
   19     dE    -2.823366e-02     1.066622e-01    -4.6212e-02      0.471 (TRAH MIcro)
   19     dE    -2.824819e-02     1.036132e-01    -4.6214e-02      0.472 (TRAH MIcro)
   19     dE    -2.833216e-02     1.031435e-01    -4.6282e-02      0.474 (TRAH MIcro)
   19     dE    -2.847068e-02     1.121860e-01    -4.6397e-02      0.477 (TRAH MIcro)
   19     dE    -2.854655e-02     1.138907e-01    -4.6467e-02      0.478 (TRAH MIcro)
   19     dE    -2.854992e-02     1.122658e-01    -4.6471e-02      0.478 (TRAH MIcro)
   19     dE    -2.855018e-02     1.123211e-01    -4.6471e-02      0.478 (TRAH MIcro)
   19     dE    -2.859682e-02     1.122279e-01    -4.6507e-02      0.479 (TRAH MIcro)
 ---------------------------------
          TRAH Step control 
 ---------------------------------
  predicted energy change = -0.028597
  actual energy  change   = 0.023109
  energy change ratio     = -0.808107
  old trust radius        = 2.972033
  new trust radius        = 2.080423
  reject step?            =  1
   20      -2017.214675696171     7.254653e-01                     2.080 (TRAH MAcro)  Yes
   21      -2017.214687351877     4.954592e-01                     2.080 (TRAH MAcro)   No
   21     dE    -6.351979e-03     4.373648e-01    -1.2696e-02      0.026 (TRAH MIcro)
   21     dE    -1.843491e-02     2.145320e-01    -3.5538e-02      0.194 (TRAH MIcro)
   21     dE    -2.128103e-02     1.392607e-01    -3.9568e-02      0.275 (TRAH MIcro)
   21     dE    -2.316774e-02     6.860424e-02    -4.1609e-02      0.337 (TRAH MIcro)
   21     dE    -2.452913e-02     8.393053e-02    -4.2862e-02      0.380 (TRAH MIcro)
   21     dE    -2.657101e-02     1.027587e-01    -4.4626e-02      0.437 (TRAH MIcro)
   21     dE    -2.689246e-02     8.880316e-02    -4.4895e-02      0.445 (TRAH MIcro)
   21     dE    -2.692758e-02     8.264802e-02    -4.4905e-02      0.446 (TRAH MIcro)
   21     dE    -2.705558e-02     8.457434e-02    -4.5013e-02      0.450 (TRAH MIcro)
   21     dE    -2.722782e-02     9.484280e-02    -4.5148e-02      0.454 (TRAH MIcro)
   21     dE    -2.729195e-02     9.563857e-02    -4.5200e-02      0.456 (TRAH MIcro)
   21     dE    -2.731055e-02     1.018884e-01    -4.5221e-02      0.456 (TRAH MIcro)
   21     dE    -2.731707e-02     1.025711e-01    -4.5224e-02      0.456 (TRAH MIcro)
   21     dE    -2.734945e-02     9.936112e-02    -4.5264e-02      0.457 (TRAH MIcro)
 ---------------------------------
          TRAH Step control 
 ---------------------------------
  predicted energy change = -0.027349
  actual energy  change   = 0.017373
  energy change ratio     = -0.635233
  old trust radius        = 2.080423
  new trust radius        = 1.456296
  reject step?            =  1
   22      -2017.214687351877     7.254653e-01                     1.456 (TRAH MAcro)  Yes
   23      -2017.214629140473     4.953465e-01                     1.456 (TRAH MAcro)   No
   23     dE    -6.346842e-03     4.369650e-01    -1.2685e-02      0.026 (TRAH MIcro)
   23     dE    -1.842828e-02     2.181167e-01    -3.5523e-02      0.194 (TRAH MIcro)
   23     dE    -2.112446e-02     1.341970e-01    -3.9360e-02      0.271 (TRAH MIcro)
   23     dE    -2.279914e-02     6.622092e-02    -4.1183e-02      0.327 (TRAH MIcro)
   23     dE    -2.414484e-02     9.002783e-02    -4.2438e-02      0.371 (TRAH MIcro)
   23     dE    -2.625700e-02     1.132232e-01    -4.4266e-02      0.432 (TRAH MIcro)
   23     dE    -2.652925e-02     1.003609e-01    -4.4489e-02      0.439 (TRAH MIcro)
   23     dE    -2.651869e-02     1.043086e-01    -4.4493e-02      0.438 (TRAH MIcro)
   23     dE    -2.661535e-02     1.059322e-01    -4.4569e-02      0.441 (TRAH MIcro)
   23     dE    -2.684283e-02     1.196562e-01    -4.4738e-02      0.447 (TRAH MIcro)
   23     dE    -2.689142e-02     1.201975e-01    -4.4777e-02      0.448 (TRAH MIcro)
   23     dE    -2.690041e-02     1.229511e-01    -4.4783e-02      0.449 (TRAH MIcro)
   23     dE    -2.692616e-02     1.249773e-01    -4.4795e-02      0.450 (TRAH MIcro)
   23     dE    -2.692739e-02     1.258795e-01    -4.4797e-02      0.450 (TRAH MIcro)
 ---------------------------------
          TRAH Step control 
 ---------------------------------
  predicted energy change = -0.026927
  actual energy  change   = 0.022267
  energy change ratio     = -0.826943
  old trust radius        = 1.456296
  new trust radius        = 1.019407
  reject step?            =  1
   24      -2017.214629140473     7.254653e-01                     1.019 (TRAH MAcro)  Yes
   25      -2017.214837324655     4.953093e-01                     1.019 (TRAH MAcro)   No
   25     dE    -6.348606e-03     4.369882e-01    -1.2689e-02      0.026 (TRAH MIcro)
   25     dE    -1.859533e-02     2.199659e-01    -3.5819e-02      0.196 (TRAH MIcro)
   25     dE    -2.159984e-02     1.397504e-01    -4.0080e-02      0.279 (TRAH MIcro)
   25     dE    -2.335356e-02     6.705722e-02    -4.1939e-02      0.337 (TRAH MIcro)
   25     dE    -2.499575e-02     9.114596e-02    -4.3470e-02      0.387 (TRAH MIcro)
   25     dE    -2.766488e-02     1.256944e-01    -4.5648e-02      0.461 (TRAH MIcro)
   25     dE    -2.833828e-02     1.128357e-01    -4.6151e-02      0.478 (TRAH MIcro)
   25     dE    -2.848179e-02     9.819676e-02    -4.6206e-02      0.483 (TRAH MIcro)
   25     dE    -2.864089e-02     9.786095e-02    -4.6338e-02      0.486 (TRAH MIcro)
   25     dE    -2.890220e-02     1.108864e-01    -4.6558e-02      0.491 (TRAH MIcro)
   25     dE    -2.900022e-02     1.118350e-01    -4.6653e-02      0.493 (TRAH MIcro)
   25     dE    -2.904051e-02     1.062882e-01    -4.6700e-02      0.494 (TRAH MIcro)
   25     dE    -2.903479e-02     1.050112e-01    -4.6703e-02      0.493 (TRAH MIcro)
   25     dE    -2.904944e-02     1.070360e-01    -4.6728e-02      0.493 (TRAH MIcro)
 ---------------------------------
          TRAH Step control 
 ---------------------------------
  predicted energy change = -0.029049
  actual energy  change   = 0.025459
  energy change ratio     = -0.876395
  old trust radius        = 1.019407
  new trust radius        = 0.713585
  reject step?            =  1
   26      -2017.214837324655     7.254653e-01                     0.714 (TRAH MAcro)  Yes
   27      -2017.214590845014     4.953448e-01                     0.714 (TRAH MAcro)   No
   27     dE    -6.347194e-03     4.370278e-01    -1.2686e-02      0.026 (TRAH MIcro)
   27     dE    -1.850564e-02     2.182992e-01    -3.5662e-02      0.195 (TRAH MIcro)
   27     dE    -2.122938e-02     1.360466e-01    -3.9536e-02      0.272 (TRAH MIcro)
   27     dE    -2.274791e-02     6.953934e-02    -4.1146e-02      0.325 (TRAH MIcro)
   27     dE    -2.408639e-02     8.934532e-02    -4.2412e-02      0.369 (TRAH MIcro)
   27     dE    -2.606683e-02     1.181374e-01    -4.4135e-02      0.426 (TRAH MIcro)
   27     dE    -2.652699e-02     1.069785e-01    -4.4520e-02      0.438 (TRAH MIcro)
   27     dE    -2.657353e-02     9.902920e-02    -4.4537e-02      0.440 (TRAH MIcro)
   27     dE    -2.674426e-02     1.016995e-01    -4.4689e-02      0.444 (TRAH MIcro)
   27     dE    -2.710073e-02     1.197542e-01    -4.4979e-02      0.453 (TRAH MIcro)
   27     dE    -2.724220e-02     1.213822e-01    -4.5107e-02      0.456 (TRAH MIcro)
   27     dE    -2.724911e-02     1.168659e-01    -4.5122e-02      0.456 (TRAH MIcro)
   27     dE    -2.724649e-02     1.164680e-01    -4.5122e-02      0.456 (TRAH MIcro)
   27     dE    -2.724637e-02     1.181090e-01    -4.5132e-02      0.455 (TRAH MIcro)
 ---------------------------------
          TRAH Step control 
 ---------------------------------
  predicted energy change = -0.027246
  actual energy  change   = 0.024896
  energy change ratio     = -0.913754
  old trust radius        = 0.713585
  new trust radius        = 0.499510
  reject step?            =  1
   28      -2017.214590845014     7.254653e-01                     0.500 (TRAH MAcro)  Yes
   29      -2017.214732669164     4.953471e-01                     0.500 (TRAH MAcro)   No
   29     dE    -6.348804e-03     4.370601e-01    -1.2689e-02      0.026 (TRAH MIcro)
   29     dE    -1.834276e-02     2.167060e-01    -3.5375e-02      0.193 (TRAH MIcro)
   29     dE    -2.133284e-02     1.361001e-01    -3.9642e-02      0.276 (TRAH MIcro)
   29     dE    -2.321622e-02     6.513265e-02    -4.1690e-02      0.337 (TRAH MIcro)
   29     dE    -2.481931e-02     9.319844e-02    -4.3222e-02      0.385 (TRAH MIcro)
   29     dE    -2.747771e-02     1.183265e-01    -4.5581e-02      0.454 (TRAH MIcro)
   29     dE    -2.787025e-02     1.003740e-01    -4.5913e-02      0.463 (TRAH MIcro)
   29     dE    -2.786663e-02     1.016578e-01    -4.5913e-02      0.462 (TRAH MIcro)
   29     dE    -2.801802e-02     1.048166e-01    -4.6042e-02      0.466 (TRAH MIcro)
   29     dE    -2.827106e-02     1.180623e-01    -4.6222e-02      0.473 (TRAH MIcro)
   29     dE    -2.833801e-02     1.188337e-01    -4.6277e-02      0.474 (TRAH MIcro)
   29     dE    -2.834621e-02     1.216625e-01    -4.6282e-02      0.474 (TRAH MIcro)
   29     dE    -2.834572e-02     1.216145e-01    -4.6282e-02      0.474 (TRAH MIcro)
   29     dE    -2.835783e-02     1.250358e-01    -4.6301e-02      0.474 (TRAH MIcro)
 ---------------------------------
          TRAH Step control 
 ---------------------------------
  predicted energy change = -0.028358
  actual energy  change   = 0.025574
  energy change ratio     = -0.901849
  old trust radius        = 0.499510
  new trust radius        = 0.349657
  reject step?            =  1
   30      -2017.214732669164     7.254653e-01                     0.350 (TRAH MAcro)  Yes
   31      -2017.214680103860     4.954043e-01                     0.350 (TRAH MAcro)   No
   31     dE    -6.349407e-03     4.371733e-01    -1.2690e-02      0.026 (TRAH MIcro)
   31     dE    -1.857884e-02     2.193492e-01    -3.5792e-02      0.195 (TRAH MIcro)
   31     dE    -2.164935e-02     1.411215e-01    -4.0147e-02      0.280 (TRAH MIcro)
   31     dE    -2.343953e-02     6.931665e-02    -4.2056e-02      0.339 (TRAH MIcro)
   31     dE    -2.427146e-02     7.923155e-02    -5.8005e-02      0.350 (TRAH MIcro)
   31     dE    -2.469925e-02     8.097658e-02    -6.9088e-02      0.350 (TRAH MIcro)
   31     dE    -2.469990e-02     8.270383e-02    -6.9121e-02      0.350 (TRAH MIcro)
   31     dE    -2.482626e-02     1.112554e-01    -7.0099e-02      0.350 (TRAH MIcro)
   31     dE    -2.491827e-02     1.215685e-01    -7.2658e-02      0.350 (TRAH MIcro)
   31     dE    -2.496908e-02     1.314695e-01    -7.5490e-02      0.350 (TRAH MIcro)
   31     dE    -2.502619e-02     1.369914e-01    -7.6167e-02      0.350 (TRAH MIcro)
   31     dE    -2.559291e-02     1.895288e-01    -8.9323e-02      0.348 (TRAH MIcro)
   31     dE    -2.559621e-02     1.891782e-01    -8.9325e-02      0.348 (TRAH MIcro)
   31     dE    -2.596886e-02     2.275763e-01    -9.6611e-02      0.350 (TRAH MIcro)
 ---------------------------------
          TRAH Step control 
 ---------------------------------
  predicted energy change = -0.025969
  actual energy  change   = 0.006426
  energy change ratio     = -0.247432
  old trust radius        = 0.349657
  new trust radius        = 0.244760
  reject step?            =  1
   32      -2017.214680103860     7.254653e-01                     0.245 (TRAH MAcro)  Yes
   33      -2017.214572737307     4.953303e-01                     0.245 (TRAH MAcro)   No
   33     dE    -6.347368e-03     4.370487e-01    -1.2686e-02      0.026 (TRAH MIcro)
   33     dE    -1.846306e-02     2.167979e-01    -3.5586e-02      0.194 (TRAH MIcro)
   33     dE    -2.105870e-02     1.084030e-01    -8.5531e-02      0.245 (TRAH MIcro)
   33     dE    -2.135999e-02     5.439634e-02    -1.1128e-01      0.245 (TRAH MIcro)
   33     dE    -2.136840e-02     4.816660e-02    -1.1099e-01      0.245 (TRAH MIcro)
   33     dE    -2.146854e-02     5.359972e-02    -1.0981e-01      0.245 (TRAH MIcro)
   33     dE    -2.169670e-02     8.626713e-02    -1.2576e-01      0.245 (TRAH MIcro)
   33     dE    -2.173865e-02     9.546766e-02    -1.3779e-01      0.244 (TRAH MIcro)
   33     dE    -2.183930e-02     1.150068e-01    -1.4099e-01      0.245 (TRAH MIcro)
   33     dE    -2.203941e-02     1.432039e-01    -1.5244e-01      0.245 (TRAH MIcro)
   33     dE    -2.207755e-02     1.551030e-01    -1.5577e-01      0.245 (TRAH MIcro)
   33     dE    -2.220022e-02     1.766184e-01    -1.6285e-01      0.245 (TRAH MIcro)
   33     dE    -2.220890e-02     1.751801e-01    -1.6221e-01      0.245 (TRAH MIcro)
   33     dE    -2.221535e-02     1.778634e-01    -1.6274e-01      0.245 (TRAH MIcro)
 ---------------------------------
          TRAH Step control 
 ---------------------------------
  predicted energy change = -0.022215
  actual energy  change   = 0.011615
  energy change ratio     = -0.522838
  old trust radius        = 0.244760
  new trust radius        = 0.171332
  reject step?            =  1
   34      -2017.214572737307     7.254653e-01                     0.171 (TRAH MAcro)  Yes
   35      -2017.214644472755     4.955173e-01                     0.171 (TRAH MAcro)   No
   35     dE    -6.353576e-03     4.373477e-01    -1.2699e-02      0.026 (TRAH MIcro)
   35     dE    -1.811467e-02     1.728256e-01    -1.2136e-01      0.171 (TRAH MIcro)
   35     dE    -1.856691e-02     8.865124e-02    -1.9601e-01      0.171 (TRAH MIcro)
   35     dE    -1.857710e-02     1.009392e-01    -1.9706e-01      0.171 (TRAH MIcro)
   35     dE    -1.859078e-02     1.044772e-01    -2.0231e-01      0.171 (TRAH MIcro)
   35     dE    -1.863907e-02     1.174565e-01    -2.0382e-01      0.171 (TRAH MIcro)
   35     dE    -1.869802e-02     1.269888e-01    -2.1734e-01      0.171 (TRAH MIcro)
   35     dE    -1.870661e-02     1.255439e-01    -2.2361e-01      0.171 (TRAH MIcro)
   35     dE    -1.871440e-02     1.300726e-01    -2.2807e-01      0.171 (TRAH MIcro)
   35     dE    -1.842718e-02     1.308739e-01    -2.6035e-01      0.164 (TRAH MIcro)
   35     dE    -1.841679e-02     1.303910e-01    -2.6035e-01      0.163 (TRAH MIcro)
   35     dE    -1.847963e-02     1.335002e-01    -2.6054e-01      0.164 (TRAH MIcro)
   35     dE    -1.849003e-02     1.346516e-01    -2.6060e-01      0.165 (TRAH MIcro)
   35     dE    -1.852012e-02     1.377196e-01    -2.6133e-01      0.164 (TRAH MIcro)
 ---------------------------------
          TRAH Step control 
 ---------------------------------
  predicted energy change = -0.018520
  actual energy  change   = 0.014193
  energy change ratio     = -0.766350
  old trust radius        = 0.171332
  new trust radius        = 0.119932
  reject step?            =  1
   36      -2017.214644472755     7.254653e-01                     0.120 (TRAH MAcro)  Yes
   37      -2017.214687056124     4.953448e-01                     0.120 (TRAH MAcro)   No
   37     dE    -6.348530e-03     4.369761e-01    -1.2689e-02      0.026 (TRAH MIcro)
   37     dE    -1.616943e-02     1.394636e-01    -4.5241e-01      0.120 (TRAH MIcro)
   37     dE    -1.641381e-02     6.615875e-02    -4.1796e-01      0.120 (TRAH MIcro)
   37     dE    -1.641424e-02     6.782419e-02    -4.1935e-01      0.120 (TRAH MIcro)
   37     dE    -1.641432e-02     6.742196e-02    -4.1851e-01      0.120 (TRAH MIcro)
   37     dE    -1.645867e-02     8.241353e-02    -4.3884e-01      0.120 (TRAH MIcro)
   37     dE    -1.647809e-02     8.264002e-02    -4.3254e-01      0.120 (TRAH MIcro)
   37     dE    -1.648043e-02     8.425143e-02    -4.3604e-01      0.120 (TRAH MIcro)
   37     dE    -1.648247e-02     8.541498e-02    -4.3235e-01      0.120 (TRAH MIcro)
   37     dE    -1.651628e-02     8.742787e-02    -4.2018e-01      0.120 (TRAH MIcro)
   37     dE    -1.651878e-02     8.898482e-02    -4.1786e-01      0.120 (TRAH MIcro)
   37     dE    -1.651243e-02     8.950102e-02    -4.1698e-01      0.120 (TRAH MIcro)
   37     dE    -1.651166e-02     8.941599e-02    -4.1699e-01      0.120 (TRAH MIcro)
   37     dE    -1.650163e-02     8.972460e-02    -4.1702e-01      0.120 (TRAH MIcro)
 ---------------------------------
          TRAH Step control 
 ---------------------------------
  predicted energy change = -0.016502
  actual energy  change   = 0.019586
  energy change ratio     = -1.186922
  old trust radius        = 0.119932
  new trust radius        = 0.083953
  reject step?            =  1
   38      -2017.214687056124     7.254653e-01                     0.084 (TRAH MAcro)  Yes
   39      -2017.214675101678     4.953546e-01                     0.084 (TRAH MAcro)   No
   39     dE    -6.348068e-03     4.370177e-01    -1.2688e-02      0.026 (TRAH MIcro)
   39     dE    -1.378500e-02     1.879008e-01    -9.4468e-01      0.084 (TRAH MIcro)
   39     dE    -1.452261e-02     4.147053e-02    -7.6271e-01      0.084 (TRAH MIcro)
   39     dE    -1.452512e-02     3.620944e-02    -7.5625e-01      0.084 (TRAH MIcro)
   39     dE    -1.453269e-02     3.994825e-02    -7.6300e-01      0.084 (TRAH MIcro)
   39     dE    -1.454659e-02     4.361115e-02    -7.6996e-01      0.084 (TRAH MIcro)
   39     dE    -1.455966e-02     4.185765e-02    -7.7106e-01      0.084 (TRAH MIcro)
   39     dE    -1.455993e-02     4.150031e-02    -7.7066e-01      0.084 (TRAH MIcro)
   39     dE    -1.456001e-02     4.158553e-02    -7.7015e-01      0.084 (TRAH MIcro)
   39     dE    -1.456093e-02     4.147745e-02    -7.6878e-01      0.084 (TRAH MIcro)
   39     dE    -1.456951e-02     4.363848e-02    -7.6831e-01      0.084 (TRAH MIcro)
   39     dE    -1.457012e-02     4.379565e-02    -7.6775e-01      0.084 (TRAH MIcro)
   39     dE    -1.457461e-02     4.449188e-02    -7.6712e-01      0.084 (TRAH MIcro)
   39     dE    -1.457710e-02     4.533369e-02    -7.6751e-01      0.084 (TRAH MIcro)
 ---------------------------------
          TRAH Step control 
 ---------------------------------
  predicted energy change = -0.014577
  actual energy  change   = 0.020293
  energy change ratio     = -1.392106
  old trust radius        = 0.083953
  new trust radius        = 0.058767
  reject step?            =  1
   40      -2017.214675101678     7.254653e-01                     0.059 (TRAH MAcro)  Yes
   41      -2017.214671599049     4.953582e-01                     0.059 (TRAH MAcro)   No
   41     dE    -6.348870e-03     4.370686e-01    -1.2689e-02      0.026 (TRAH MIcro)
   41     dE    -1.155481e-02     2.349650e-01    -1.7054e+00      0.059 (TRAH MIcro)
   41     dE    -1.245254e-02     4.089121e-02    -1.5398e+00      0.057 (TRAH MIcro)
   41     dE    -1.244370e-02     3.188497e-02    -1.5406e+00      0.057 (TRAH MIcro)
   41     dE    -1.244764e-02     3.122634e-02    -1.5408e+00      0.057 (TRAH MIcro)
   41     dE    -1.245451e-02     3.159792e-02    -1.5411e+00      0.057 (TRAH MIcro)
   41     dE    -1.245491e-02     3.146348e-02    -1.5412e+00      0.057 (TRAH MIcro)
   41     dE    -1.245621e-02     3.159076e-02    -1.5412e+00      0.057 (TRAH MIcro)
   41     dE    -1.245564e-02     3.151166e-02    -1.5412e+00      0.057 (TRAH MIcro)
   41     dE    -1.245584e-02     3.155615e-02    -1.5413e+00      0.057 (TRAH MIcro)
   41     dE    -1.245665e-02     3.235416e-02    -1.5417e+00      0.057 (TRAH MIcro)
   41     dE    -1.245658e-02     3.234193e-02    -1.5417e+00      0.057 (TRAH MIcro)
   41     dE    -1.246064e-02     3.289326e-02    -1.5418e+00      0.057 (TRAH MIcro)
   41     dE    -1.246694e-02     3.412007e-02    -1.5421e+00      0.057 (TRAH MIcro)
 ---------------------------------
          TRAH Step control 
 ---------------------------------
  predicted energy change = -0.012467
  actual energy  change   = 0.020699
  energy change ratio     = -1.660276
  old trust radius        = 0.058767
  new trust radius        = 0.041137
  reject step?            =  1
   42      -2017.214671599049     7.254653e-01                     0.041 (TRAH MAcro)  Yes
   43      -2017.214721325863     4.953921e-01                     0.041 (TRAH MAcro)   No
   43     dE    -6.347773e-03     4.370934e-01    -1.2687e-02      0.026 (TRAH MIcro)
   43     dE    -8.915001e-03     2.672369e-01    -3.6434e+00      0.036 (TRAH MIcro)
   43     dE    -1.016053e-02     2.892072e-02    -4.1295e+00      0.036 (TRAH MIcro)
   43     dE    -1.015831e-02     2.208039e-02    -4.1302e+00      0.036 (TRAH MIcro)
   43     dE    -1.016151e-02     2.460325e-02    -4.1305e+00      0.036 (TRAH MIcro)
   43     dE    -1.016194e-02     2.486677e-02    -4.1306e+00      0.036 (TRAH MIcro)
   43     dE    -1.016209e-02     2.494941e-02    -4.1306e+00      0.036 (TRAH MIcro)
   43     dE    -1.016245e-02     2.494615e-02    -4.1307e+00      0.036 (TRAH MIcro)
   43     dE    -1.016318e-02     2.513653e-02    -4.1310e+00      0.036 (TRAH MIcro)
   43     dE    -1.016362e-02     2.530462e-02    -4.1311e+00      0.036 (TRAH MIcro)
   43     dE    -1.016482e-02     2.583888e-02    -4.1314e+00      0.036 (TRAH MIcro)
   43     dE    -1.016558e-02     2.609804e-02    -4.1314e+00      0.036 (TRAH MIcro)
   43     dE    -1.016557e-02     2.609802e-02    -4.1314e+00      0.036 (TRAH MIcro)
   43     dE    -1.016580e-02     2.606700e-02    -4.1314e+00      0.036 (TRAH MIcro)
 ---------------------------------
          TRAH Step control 
 ---------------------------------
  predicted energy change = -0.010166
  actual energy  change   = 0.018049
  energy change ratio     = -1.775498
  old trust radius        = 0.041137
  new trust radius        = 0.028796
  reject step?            =  1
   44      -2017.214721325863     7.254653e-01                     0.029 (TRAH MAcro)  Yes
   45      -2017.214833096859     4.953406e-01                     0.029 (TRAH MAcro)   No
   45     dE    -6.349525e-03     4.371092e-01    -1.2691e-02      0.026 (TRAH MIcro)
   45     dE    -7.981084e-03     2.674524e-01    -5.1583e+00      0.029 (TRAH MIcro)
   45     dE    -9.005988e-03     2.444597e-02    -6.5574e+00      0.029 (TRAH MIcro)
   45     dE    -9.006827e-03     1.726125e-02    -6.5437e+00      0.029 (TRAH MIcro)
   45     dE    -9.007247e-03     1.837768e-02    -6.5477e+00      0.029 (TRAH MIcro)
   45     dE    -9.008008e-03     1.911084e-02    -6.5476e+00      0.029 (TRAH MIcro)
   45     dE    -9.008675e-03     1.930525e-02    -6.5458e+00      0.029 (TRAH MIcro)
   45     dE    -9.008636e-03     1.931875e-02    -6.5458e+00      0.029 (TRAH MIcro)
   45     dE    -9.008937e-03     1.983279e-02    -6.5514e+00      0.029 (TRAH MIcro)
   45     dE    -9.009194e-03     2.003326e-02    -6.5530e+00      0.029 (TRAH MIcro)
   45     dE    -9.009622e-03     2.000829e-02    -6.5518e+00      0.029 (TRAH MIcro)
   45     dE    -9.009703e-03     2.049649e-02    -6.5550e+00      0.029 (TRAH MIcro)
   45     dE    -9.010480e-03     2.154595e-02    -6.5579e+00      0.029 (TRAH MIcro)
   45     dE    -9.011043e-03     2.197388e-02    -6.5567e+00      0.029 (TRAH MIcro)
 ---------------------------------
          TRAH Step control 
 ---------------------------------
  predicted energy change = -0.009011
  actual energy  change   = 0.016273
  energy change ratio     = -1.805891
  old trust radius        = 0.028796
  new trust radius        = 0.020157
  reject step?            =  1
   46      -2017.214833096859     7.254653e-01                     0.020 (TRAH MAcro)  Yes
   47      -2017.214623353454     4.953325e-01                     0.020 (TRAH MAcro)   No
   47     dE    -6.058133e-03     3.439400e-01    -5.2484e+00      0.020 (TRAH MIcro)
   47     dE    -7.090020e-03     6.150468e-02    -1.2286e+01      0.020 (TRAH MIcro)
   47     dE    -7.116315e-03     1.160462e-02    -1.2154e+01      0.020 (TRAH MIcro)
   47     dE    -7.116800e-03     1.229076e-02    -1.2150e+01      0.020 (TRAH MIcro)
   47     dE    -7.116837e-03     1.234523e-02    -1.2150e+01      0.020 (TRAH MIcro)
   47     dE    -7.116939e-03     1.261578e-02    -1.2150e+01      0.020 (TRAH MIcro)
   47     dE    -7.116846e-03     1.233929e-02    -1.2151e+01      0.020 (TRAH MIcro)
   47     dE    -7.116891e-03     1.223751e-02    -1.2151e+01      0.020 (TRAH MIcro)
   47     dE    -7.116890e-03     1.217408e-02    -1.2151e+01      0.020 (TRAH MIcro)
   47     dE    -7.116892e-03     1.218203e-02    -1.2151e+01      0.020 (TRAH MIcro)
   47     dE    -7.116968e-03     1.222966e-02    -1.2151e+01      0.020 (TRAH MIcro)
   47     dE    -7.117083e-03     1.235501e-02    -1.2151e+01      0.020 (TRAH MIcro)
   47     dE    -7.117735e-03     1.332194e-02    -1.2150e+01      0.020 (TRAH MIcro)
   47     dE    -7.117835e-03     1.336624e-02    -1.2150e+01      0.020 (TRAH MIcro)
 ---------------------------------
          TRAH Step control 
 ---------------------------------
  predicted energy change = -0.007118
  actual energy  change   = 0.011651
  energy change ratio     = -1.636837
  old trust radius        = 0.020157
  new trust radius        = 0.014110
  reject step?            =  1
   48      -2017.214623353454     7.254653e-01                     0.014 (TRAH MAcro)  Yes
   49      -2017.214594966159     4.953173e-01                     0.014 (TRAH MAcro)   No
   49     dE    -5.051069e-03     2.398428e-01    -1.5920e+01      0.014 (TRAH MIcro)
   49     dE    -5.077900e-03     2.235485e-02    -2.4610e+01      0.013 (TRAH MIcro)
   49     dE    -5.072547e-03     8.750872e-03    -2.4616e+01      0.013 (TRAH MIcro)
 ---------------------------------
          TRAH Step control 
 ---------------------------------
  predicted energy change = -0.005073
  actual energy  change   = 0.008004
  energy change ratio     = -1.577882
  old trust radius        = 0.014110
  new trust radius        = 0.009877
  reject step?            =  1
   50      -2017.214594966159     7.254653e-01                     0.010 (TRAH MAcro)  Yes
   51      -2017.214657828444     4.954896e-01                     0.010 (TRAH MAcro)   No
   51     dE    -3.951687e-03     1.685911e-01    -3.0841e+01      0.010 (TRAH MIcro)
   51     dE    -4.108297e-03     7.751794e-03    -3.5206e+01      0.010 (TRAH MIcro)
 ---------------------------------
          TRAH Step control 
 ---------------------------------
  predicted energy change = -0.004108
  actual energy  change   = 0.005749
  energy change ratio     = -1.399242
  old trust radius        = 0.009877
  new trust radius        = 0.006914
  reject step?            =  1
   52      -2017.214657828444     7.254653e-01                     0.007 (TRAH MAcro)  Yes
   53      -2017.214663057383     4.953524e-01                     0.007 (TRAH MAcro)   No
   53     dE    -2.924748e-03     1.161718e-01    -5.3436e+01      0.007 (TRAH MIcro)
   53     dE    -3.022766e-03     3.546351e-03    -5.5745e+01      0.007 (TRAH MIcro)
 ---------------------------------
          TRAH Step control 
 ---------------------------------
  predicted energy change = -0.003023
  actual energy  change   = 0.003697
  energy change ratio     = -1.223161
  old trust radius        = 0.006914
  new trust radius        = 0.004840
  reject step?            =  1
   54      -2017.214663057383     7.254653e-01                     0.005 (TRAH MAcro)  Yes
   55      -2017.214614460148     4.953519e-01                     0.005 (TRAH MAcro)   No
   55     dE    -2.150415e-03     8.171270e-02    -8.4116e+01      0.005 (TRAH MIcro)
   55     dE    -2.193656e-03     2.066436e-03    -8.5672e+01      0.005 (TRAH MIcro)
 ---------------------------------
          TRAH Step control 
 ---------------------------------
  predicted energy change = -0.002194
  actual energy  change   = 0.002769
  energy change ratio     = -1.262271
  old trust radius        = 0.004840
  new trust radius        = 0.003388
  reject step?            =  1
   56      -2017.214614460148     7.254653e-01                     0.003 (TRAH MAcro)  Yes
   57      -2017.214614850984     4.953832e-01                     0.003 (TRAH MAcro)   No
   57     dE    -1.567197e-03     5.779619e-02    -1.2692e+02      0.003 (TRAH MIcro)
   57     dE    -1.575326e-03     1.265559e-03    -1.2898e+02      0.003 (TRAH MIcro)
 ---------------------------------
          TRAH Step control 
 ---------------------------------
  predicted energy change = -0.001575
  actual energy  change   = 0.002227
  energy change ratio     = -1.413653
  old trust radius        = 0.003388
  new trust radius        = 0.002371
  reject step?            =  1
   58      -2017.214614850984     7.254653e-01                     0.002 (TRAH MAcro)  Yes
   59      -2017.214598144197     4.953053e-01                     0.002 (TRAH MAcro)   No
   59     dE    -9.161023e-04     3.279491e-02    -2.3842e+02      0.002 (TRAH MIcro)
   59     dE    -9.207457e-04     7.371834e-04    -2.3886e+02      0.002 (TRAH MIcro)
 ---------------------------------
          TRAH Step control 
 ---------------------------------
  predicted energy change = -0.000921
  actual energy  change   = 0.001061
  energy change ratio     = -1.152453
  old trust radius        = 0.002371
  new trust radius        = 0.001660
  reject step?            =  1
   60      -2017.214598144197     7.254653e-01                     0.002 (TRAH MAcro)  Yes
   61      -2017.214578046059     4.952339e-01                     0.002 (TRAH MAcro)   No
   61     dE    -7.955972e-04     2.833573e-02    -2.7894e+02      0.002 (TRAH MIcro)
   61     dE    -7.961791e-04     5.752606e-04    -2.8030e+02      0.002 (TRAH MIcro)
 ---------------------------------
          TRAH Step control 
 ---------------------------------
  predicted energy change = -0.000796
  actual energy  change   = 0.000865
  energy change ratio     = -1.086861
  old trust radius        = 0.001660
  new trust radius        = 0.001162
  reject step?            =  1
   62      -2017.214578046059     7.254653e-01                     0.001 (TRAH MAcro)  Yes
   63      -2017.214657563768     4.953646e-01                     0.001 (TRAH MAcro)   No
   63     dE    -5.624866e-04     1.981817e-02    -4.0704e+02      0.001 (TRAH MIcro)
   63     dE    -5.629866e-04     3.560645e-04    -4.0781e+02      0.001 (TRAH MIcro)
 ---------------------------------
          TRAH Step control 
 ---------------------------------
  predicted energy change = -0.000563
  actual energy  change   = 0.000221
  energy change ratio     = -0.393121
  old trust radius        = 0.001162
  new trust radius        = 0.000813
  reject step?            =  1
   64      -2017.214657563768     7.254653e-01                     0.001 (TRAH MAcro)  Yes
   65      -2017.214570724787     4.953426e-01                     0.001 (TRAH MAcro)   No
   65     dE    -4.764775e-04     1.673391e-02    -4.8577e+02      0.001 (TRAH MIcro)
   65     dE    -4.771681e-04     3.269320e-04    -4.8602e+02      0.001 (TRAH MIcro)
   66      -2017.214780957835     4.765231e-01                     0.001 (TRAH MAcro)   No
   66     dE    -4.587290e-04     1.512659e-02    -4.6750e+02      0.001 (TRAH MIcro)
   66     dE    -4.593199e-04     3.489383e-04    -4.6771e+02      0.001 (TRAH MIcro)
 ---------------------------------
          TRAH Step control 
 ---------------------------------
  predicted energy change = -0.000459
  actual energy  change   = 0.001037
  energy change ratio     = -2.258119
  old trust radius        = 0.000813
  new trust radius        = 0.000569
  reject step?            =  1
   67      -2017.214780957835     4.953426e-01                     0.001 (TRAH MAcro)  Yes
   68      -2017.214705637761     4.763778e-01                     0.001 (TRAH MAcro)   No
   68     dE    -4.585878e-04     1.512005e-02    -4.6736e+02      0.001 (TRAH MIcro)
   68     dE    -4.591786e-04     3.449351e-04    -4.6757e+02      0.001 (TRAH MIcro)
 ---------------------------------
          TRAH Step control 
 ---------------------------------
  predicted energy change = -0.000459
  actual energy  change   = 0.000919
  energy change ratio     = -2.000923
  old trust radius        = 0.000569
  new trust radius        = 0.000399
  reject step?            =  1
   69      -2017.214705637761     4.953426e-01                     0.000 (TRAH MAcro)  Yes
   70      -2017.214522605276     4.763616e-01                     0.000 (TRAH MAcro)   No
   70     dE    -4.585708e-04     1.512158e-02    -4.6734e+02      0.001 (TRAH MIcro)
   70     dE    -4.591619e-04     3.434865e-04    -4.6755e+02      0.001 (TRAH MIcro)
 ---------------------------------
          TRAH Step control 
 ---------------------------------
  predicted energy change = -0.000459
  actual energy  change   = 0.001400
  energy change ratio     = -3.048757
  old trust radius        = 0.000399
  new trust radius        = 0.000279
  reject step?            =  1
   71      -2017.214522605276     4.953426e-01                     0.000 (TRAH MAcro)  Yes
   72      -2017.214556170263     4.764477e-01                     0.000 (TRAH MAcro)   No
   72     dE    -4.586546e-04     1.512122e-02    -4.6742e+02      0.001 (TRAH MIcro)
   72     dE    -4.592465e-04     3.325321e-04    -4.6763e+02      0.001 (TRAH MIcro)
 ---------------------------------
          TRAH Step control 
 ---------------------------------
  predicted energy change = -0.000459
  actual energy  change   = 0.000548
  energy change ratio     = -1.193458
  old trust radius        = 0.000279
  new trust radius        = 0.000195
  reject step?            =  1
   73      -2017.214556170263     4.953426e-01                     0.000 (TRAH MAcro)  Yes
   74      -2017.214466050128     4.764043e-01                     0.000 (TRAH MAcro)   No
