
                                 *****************
                                 * O   R   C   A *
                                 *****************

                                            #,                                       
                                            ###                                      
                                            ####                                     
                                            #####                                    
                                            ######                                   
                                           ########,                                 
                                     ,,################,,,,,                         
                               ,,#################################,,                 
                          ,,##########################################,,             
                       ,#########################################, ''#####,          
                    ,#############################################,,   '####,        
                  ,##################################################,,,,####,       
                ,###########''''           ''''###############################       
              ,#####''   ,,,,##########,,,,          '''####'''          '####       
            ,##' ,,,,###########################,,,                        '##       
           ' ,,###''''                  '''############,,,                           
         ,,##''                                '''############,,,,        ,,,,,,###''
      ,#''                                            '''#######################'''  
     '                                                          ''''####''''         
             ,#######,   #######,   ,#######,      ##                                
            ,#'     '#,  ##    ##  ,#'     '#,    #''#        ######   ,####,        
            ##       ##  ##   ,#'  ##            #'  '#       #        #'  '#        
            ##       ##  #######   ##           ,######,      #####,   #    #        
            '#,     ,#'  ##    ##  '#,     ,#' ,#      #,         ##   #,  ,#        
             '#######'   ##     ##  '#######'  #'      '#     #####' # '####'        



                  #######################################################
                  #                        -***-                        #
                  #          Department of theory and spectroscopy      #
                  #    Directorship and core code : Frank Neese         #
                  #        Max Planck Institute fuer Kohlenforschung    #
                  #                Kaiser Wilhelm Platz 1               #
                  #                 D-45470 Muelheim/Ruhr               #
                  #                      Germany                        #
                  #                                                     #
                  #                  All rights reserved                #
                  #                        -***-                        #
                  #######################################################


                         Program Version 5.0.4 -  RELEASE  -


 With contributions from (in alphabetic order):
   Daniel Aravena         : Magnetic Suceptibility
   Michael Atanasov       : Ab Initio Ligand Field Theory (pilot matlab implementation)
   Alexander A. Auer      : GIAO ZORA, VPT2 properties, NMR spectrum
   Ute Becker             : Parallelization
   Giovanni Bistoni       : ED, misc. LED, open-shell LED, HFLD
   Martin Brehm           : Molecular dynamics
   Dmytro Bykov           : SCF Hessian
   Vijay G. Chilkuri      : MRCI spin determinant printing, contributions to CSF-ICE
   Dipayan Datta          : RHF DLPNO-CCSD density
   Achintya Kumar Dutta   : EOM-CC, STEOM-CC
   Dmitry Ganyushin       : Spin-Orbit,Spin-Spin,Magnetic field MRCI
   Miquel Garcia          : C-PCM and meta-GGA Hessian, CC/C-PCM, Gaussian charge scheme
   Yang Guo               : DLPNO-NEVPT2, F12-NEVPT2, CIM, IAO-localization
   Andreas Hansen         : Spin unrestricted coupled pair/coupled cluster methods
   Benjamin Helmich-Paris : MC-RPA, TRAH-SCF, COSX integrals
   Lee Huntington         : MR-EOM, pCC
   Robert Izsak           : Overlap fitted RIJCOSX, COSX-SCS-MP3, EOM
   Marcus Kettner         : VPT2
   Christian Kollmar      : KDIIS, OOCD, Brueckner-CCSD(T), CCSD density, CASPT2, CASPT2-K
   Simone Kossmann        : Meta GGA functionals, TD-DFT gradient, OOMP2, MP2 Hessian
   Martin Krupicka        : Initial AUTO-CI
   Lucas Lang             : DCDCAS
   Marvin Lechner         : AUTO-CI (C++ implementation), FIC-MRCC
   Dagmar Lenk            : GEPOL surface, SMD
   Dimitrios Liakos       : Extrapolation schemes; Compound Job, initial MDCI parallelization
   Dimitrios Manganas     : Further ROCIS development; embedding schemes
   Dimitrios Pantazis     : SARC Basis sets
   Anastasios Papadopoulos: AUTO-CI, single reference methods and gradients
   Taras Petrenko         : DFT Hessian,TD-DFT gradient, ASA, ECA, R-Raman, ABS, FL, XAS/XES, NRVS
   Peter Pinski           : DLPNO-MP2, DLPNO-MP2 Gradient
   Christoph Reimann      : Effective Core Potentials
   Marius Retegan         : Local ZFS, SOC
   Christoph Riplinger    : Optimizer, TS searches, QM/MM, DLPNO-CCSD(T), (RO)-DLPNO pert. Triples
   Tobias Risthaus        : Range-separated hybrids, TD-DFT gradient, RPA, STAB
   Michael Roemelt        : Original ROCIS implementation
   Masaaki Saitow         : Open-shell DLPNO-CCSD energy and density
   Barbara Sandhoefer     : DKH picture change effects
   Avijit Sen             : IP-ROCIS
   Kantharuban Sivalingam : CASSCF convergence, NEVPT2, FIC-MRCI
   Bernardo de Souza      : ESD, SOC TD-DFT
   Georgi Stoychev        : AutoAux, RI-MP2 NMR, DLPNO-MP2 response
   Willem Van den Heuvel  : Paramagnetic NMR
   Boris Wezisla          : Elementary symmetry handling
   Frank Wennmohs         : Technical directorship


 We gratefully acknowledge several colleagues who have allowed us to
 interface, adapt or use parts of their codes:
   Stefan Grimme, W. Hujo, H. Kruse, P. Pracht,  : VdW corrections, initial TS optimization,
                  C. Bannwarth, S. Ehlert          DFT functionals, gCP, sTDA/sTD-DF
   Ed Valeev, F. Pavosevic, A. Kumar             : LibInt (2-el integral package), F12 methods
   Garnet Chan, S. Sharma, J. Yang, R. Olivares  : DMRG
   Ulf Ekstrom                                   : XCFun DFT Library
   Mihaly Kallay                                 : mrcc  (arbitrary order and MRCC methods)
   Jiri Pittner, Ondrej Demel                    : Mk-CCSD
   Frank Weinhold                                : gennbo (NPA and NBO analysis)
   Christopher J. Cramer and Donald G. Truhlar   : smd solvation model
   Lars Goerigk                                  : TD-DFT with DH, B97 family of functionals
   V. Asgeirsson, H. Jonsson                     : NEB implementation
   FAccTs GmbH                                   : IRC, NEB, NEB-TS, DLPNO-Multilevel, CI-OPT
                                                   MM, QMMM, 2- and 3-layer-ONIOM, Crystal-QMMM,
                                                   LR-CPCM, SF, NACMEs, symmetry and pop. for TD-DFT,
                                                   nearIR, NL-DFT gradient (VV10), updates on ESD,
                                                   ML-optimized integration grids
   S Lehtola, MJT Oliveira, MAL Marques          : LibXC Library
   Liviu Ungur et al                             : ANISO software


 Your calculation uses the libint2 library for the computation of 2-el integrals
 For citations please refer to: http://libint.valeyev.net

 Your ORCA version has been built with support for libXC version: 5.1.0
 For citations please refer to: https://tddft.org/programs/libxc/

 This ORCA versions uses:
   CBLAS   interface :  Fast vector & matrix operations
   LAPACKE interface :  Fast linear algebra routines
   SCALAPACK package :  Parallel linear algebra routines
   Shared memory     :  Shared parallel matrices
   BLAS/LAPACK       :  OpenBLAS 0.3.15  USE64BITINT DYNAMIC_ARCH NO_AFFINITY Haswell SINGLE_THREADED
        Core in use  :  Haswell
   Copyright (c) 2011-2014, The OpenBLAS Project


Your calculation utilizes the atom-pairwise dispersion correction
with the Becke-Johnson damping scheme (D3BJ)
Cite in your paper:
S.Grimme, S.Ehrlich, L.Goerigk, J Comput Chem, (2011), 32, 1456–1465 
S.Grimme, J.Antony, S.Ehrlich and H.Krieg, J.Chem.Phys., 132, (2010), 154104 
   

XCFun DFT library Copyright 2009-2010 Ulf Ekstrom and contributors.
See http://admol.org/xcfun for more information.
This is free software; see the source code for copying conditions.
There is ABSOLUTELY NO WARRANTY; not even for MERCHANTABILITY or FITNESS FOR A PARTICULAR PURPOSE.
For details see the documentation.
Scientific users of this library should cite U. Ekstrom, L. Visscher, R. Bast, A. J. Thorvaldsen and K. Ruud;
J.Chem.Theor.Comp. 2010, DOI: 10.1021/ct100117s
XCFun Version 0.99 

================================================================================

----- Orbital basis set information -----
Your calculation utilizes the basis: def2-TZVPPD
   F. Weigend and R. Ahlrichs, Phys. Chem. Chem. Phys. 7, 3297 (2005).
   D. Rappoport and F. Furche, J. Chem. Phys. 133 134105 (2010).

----- AuxJ basis set information -----
Your calculation utilizes the auxiliary basis: def2/J
   F. Weigend, Phys. Chem. Chem. Phys. 8, 1057 (2006).

================================================================================
                                        WARNINGS
                       Please study these warnings very carefully!
================================================================================

INFO   : Checking CIS options ...

WARNING: CIS/ROCIS methods need fully converged wavefunctions
  ===> : Setting SCFConvForced true
         You can overwrite this default with %scf ConvForced false 


INFO   : the flag for use of the SHARK integral package has been found!

================================================================================
                                       INPUT FILE
================================================================================
NAME = 24/24.inp
|  1> ! CAM-B3LYP D3BJ def2-tzvppd CPCM(Acetonitrile) Defgrid3
|  2> %TDDFT
|  3>    NROOTS   30 end
|  4> %maxcore 10000
|  5> %pal nprocs 24
|  6> end
|  7> *xyz 0 1
|  8> C        3.116000000     -0.864000000     -8.878000000
|  9> C        3.815000000      0.082000000     -8.223000000
| 10> C        3.756000000      0.185000000     -6.884000000
| 11> C        2.981000000     -0.683000000     -6.222000000
| 12> C        2.723000000     -0.837000000     -4.914000000
| 13> C        1.876000000     -1.878000000     -4.845000000
| 14> N        1.649000000     -2.303000000     -6.020000000
| 15> C        3.288000000     -0.010000000     -3.792000000
| 16> C        2.785000000     -0.406000000     -2.393000000
| 17> C        3.443000000      0.397000000     -1.270000000
| 18> N        1.320000000     -0.265000000     -2.352000000
| 19> C        0.496000000     -0.940000000     -1.494000000
| 20> O       -0.828000000     -0.662000000     -1.646000000
| 21> O        0.940000000     -1.709000000     -0.677000000
| 22> C       -1.838000000     -1.250000000     -0.884000000
| 23> C       -3.158000000     -0.851000000     -1.566000000
| 24> C       -1.757000000     -2.782000000     -0.856000000
| 25> C       -1.836000000     -0.669000000      0.533000000
| 26> N        3.195000000     -0.112000000     -0.030000000
| 27> O        4.102000000      1.389000000     -1.453000000
| 28> C        3.553000000      0.532000000      1.239000000
| 29> C        2.992000000      1.965000000      1.375000000
| 30> C        2.971000000     -0.310000000      2.379000000
| 31> O        3.453000000     -0.332000000      3.483000000
| 32> N        1.845000000     -0.999000000      2.030000000
| 33> C        1.087000000     -1.865000000      2.937000000
| 34> C        1.509000000      2.073000000      1.055000000
| 35> N        0.957000000      3.291000000      1.335000000
| 36> O        0.870000000      1.164000000      0.592000000
| 37> C       -0.466000000      3.585000000      1.101000000
| 38> C       -1.355000000      2.758000000      2.036000000
| 39> O       -2.665000000      2.852000000      1.686000000
| 40> O       -0.931000000      2.135000000      2.984000000
| 41> C       -3.596000000      2.178000000      2.499000000
| 42> C       -0.821000000      3.527000000     -0.399000000
| 43> C       -2.049000000      4.320000000     -0.762000000
| 44> C       -2.150000000      5.659000000     -0.815000000
| 45> C       -3.395000000      6.010000000     -1.178000000
| 46> C       -4.285000000      4.822000000     -1.418000000
| 47> C       -3.234000000      3.790000000     -1.109000000
| 48> C       -1.223000000      6.596000000     -0.570000000
| 49> C       -1.564000000      7.890000000     -0.688000000
| 50> C       -2.811000000      8.241000000     -1.047000000
| 51> C       -3.737000000      7.300000000     -1.297000000
| 52> C        0.353000000     -1.041000000      4.015000000
| 53> C        1.906000000     -3.045000000      3.488000000
| 54> C        1.019000000     -4.082000000      4.116000000
| 55> C       -1.105000000     -1.409000000      4.263000000
| 56> O       -1.656000000     -0.526000000      5.145000000
| 57> O       -1.698000000     -2.329000000      3.747000000
| 58> C       -3.024000000     -0.691000000      5.438000000
| 59> C        0.860000000     -4.320000000      5.427000000
| 60> N        0.023000000     -5.264000000      5.571000000
| 61> C       -0.391000000     -5.675000000      4.446000000
| 62> C        0.218000000     -4.958000000      3.491000000
| 63> C       -1.268000000     -6.638000000      4.142000000
| 64> C       -1.524000000     -6.864000000      2.842000000
| 65> C       -0.914000000     -6.145000000      1.881000000
| 66> C       -0.030000000     -5.181000000      2.195000000
| 67> H        1.764000000     -2.513000000     -8.736000000
| 68> H        3.183000000     -0.930000000     -9.977000000
| 69> H        4.448000000      0.783000000     -8.794000000
| 70> H        4.330000000      0.959000000     -6.350000000
| 71> H        1.409000000     -2.358000000     -3.980000000
| 72> H        1.024000000     -3.108000000     -6.255000000
| 73> H        4.400000000     -0.101000000     -3.828000000
| 74> H        3.022000000      1.056000000     -3.988000000
| 75> H        3.072000000     -1.474000000     -2.229000000
| 76> H        0.870000000      0.386000000     -2.993000000
| 77> H       -4.043000000     -1.220000000     -1.000000000
| 78> H       -3.255000000      0.256000000     -1.646000000
| 79> H       -3.220000000     -1.266000000     -2.598000000
| 80> H       -2.711000000     -3.221000000     -0.488000000
| 81> H       -0.979000000     -3.178000000     -0.170000000
| 82> H       -1.571000000     -3.196000000     -1.874000000
| 83> H       -1.962000000      0.435000000      0.509000000
| 84> H       -2.663000000     -1.091000000      1.147000000
| 85> H       -0.889000000     -0.878000000      1.072000000
| 86> H        2.661000000     -0.977000000      0.021000000
| 87> H        4.664000000      0.535000000      1.346000000
| 88> H        3.157000000      2.329000000      2.417000000
| 89> H        3.536000000      2.669000000      0.704000000
| 90> H        1.438000000     -0.815000000      1.108000000
| 91> H        0.322000000     -2.309000000      2.255000000
| 92> H        1.551000000      4.018000000      1.731000000
| 93> H       -0.601000000      4.636000000      1.456000000
| 94> H       -4.608000000      2.341000000      2.065000000
| 95> H       -3.383000000      1.087000000      2.510000000
| 96> H       -3.575000000      2.595000000      3.531000000
| 97> H        0.028000000      3.932000000     -0.999000000
| 98> H       -0.953000000      2.472000000     -0.728000000
| 99> H       -5.133000000      4.777000000     -0.698000000
|100> H       -4.628000000      4.759000000     -2.475000000
|101> H       -3.442000000      2.712000000     -1.161000000
|102> H       -0.197000000      6.323000000     -0.279000000
|103> H       -0.813000000      8.673000000     -0.489000000
|104> H       -3.076000000      9.307000000     -1.141000000
|105> H       -4.761000000      7.577000000     -1.596000000
|106> H        0.911000000     -1.088000000      4.978000000
|107> H        0.352000000      0.027000000      3.695000000
|108> H        2.479000000     -3.526000000      2.662000000
|109> H        2.654000000     -2.702000000      4.237000000
|110> H       -3.326000000      0.124000000      6.132000000
|111> H       -3.628000000     -0.607000000      4.507000000
|112> H       -3.193000000     -1.671000000      5.937000000
|113> H        1.327000000     -3.828000000      6.287000000
|114> H       -0.291000000     -5.652000000      6.491000000
|115> H       -1.764000000     -7.224000000      4.933000000
|116> H       -2.245000000     -7.650000000      2.558000000
|117> H       -1.139000000     -6.347000000      0.820000000
|118> H        0.470000000     -4.596000000      1.407000000
|119> *
|120> 
|121>                          ****END OF INPUT****
================================================================================

                       ****************************
                       * Single Point Calculation *
                       ****************************

---------------------------------
CARTESIAN COORDINATES (ANGSTROEM)
---------------------------------
  C      3.116000   -0.864000   -8.878000
  C      3.815000    0.082000   -8.223000
  C      3.756000    0.185000   -6.884000
  C      2.981000   -0.683000   -6.222000
  C      2.723000   -0.837000   -4.914000
  C      1.876000   -1.878000   -4.845000
  N      1.649000   -2.303000   -6.020000
  C      3.288000   -0.010000   -3.792000
  C      2.785000   -0.406000   -2.393000
  C      3.443000    0.397000   -1.270000
  N      1.320000   -0.265000   -2.352000
  C      0.496000   -0.940000   -1.494000
  O     -0.828000   -0.662000   -1.646000
  O      0.940000   -1.709000   -0.677000
  C     -1.838000   -1.250000   -0.884000
  C     -3.158000   -0.851000   -1.566000
  C     -1.757000   -2.782000   -0.856000
  C     -1.836000   -0.669000    0.533000
  N      3.195000   -0.112000   -0.030000
  O      4.102000    1.389000   -1.453000
  C      3.553000    0.532000    1.239000
  C      2.992000    1.965000    1.375000
  C      2.971000   -0.310000    2.379000
  O      3.453000   -0.332000    3.483000
  N      1.845000   -0.999000    2.030000
  C      1.087000   -1.865000    2.937000
  C      1.509000    2.073000    1.055000
  N      0.957000    3.291000    1.335000
  O      0.870000    1.164000    0.592000
  C     -0.466000    3.585000    1.101000
  C     -1.355000    2.758000    2.036000
  O     -2.665000    2.852000    1.686000
  O     -0.931000    2.135000    2.984000
  C     -3.596000    2.178000    2.499000
  C     -0.821000    3.527000   -0.399000
  C     -2.049000    4.320000   -0.762000
  C     -2.150000    5.659000   -0.815000
  C     -3.395000    6.010000   -1.178000
  C     -4.285000    4.822000   -1.418000
  C     -3.234000    3.790000   -1.109000
  C     -1.223000    6.596000   -0.570000
  C     -1.564000    7.890000   -0.688000
  C     -2.811000    8.241000   -1.047000
  C     -3.737000    7.300000   -1.297000
  C      0.353000   -1.041000    4.015000
  C      1.906000   -3.045000    3.488000
  C      1.019000   -4.082000    4.116000
  C     -1.105000   -1.409000    4.263000
  O     -1.656000   -0.526000    5.145000
  O     -1.698000   -2.329000    3.747000
  C     -3.024000   -0.691000    5.438000
  C      0.860000   -4.320000    5.427000
  N      0.023000   -5.264000    5.571000
  C     -0.391000   -5.675000    4.446000
  C      0.218000   -4.958000    3.491000
  C     -1.268000   -6.638000    4.142000
  C     -1.524000   -6.864000    2.842000
  C     -0.914000   -6.145000    1.881000
  C     -0.030000   -5.181000    2.195000
  H      1.764000   -2.513000   -8.736000
  H      3.183000   -0.930000   -9.977000
  H      4.448000    0.783000   -8.794000
  H      4.330000    0.959000   -6.350000
  H      1.409000   -2.358000   -3.980000
  H      1.024000   -3.108000   -6.255000
  H      4.400000   -0.101000   -3.828000
  H      3.022000    1.056000   -3.988000
  H      3.072000   -1.474000   -2.229000
  H      0.870000    0.386000   -2.993000
  H     -4.043000   -1.220000   -1.000000
  H     -3.255000    0.256000   -1.646000
  H     -3.220000   -1.266000   -2.598000
  H     -2.711000   -3.221000   -0.488000
  H     -0.979000   -3.178000   -0.170000
  H     -1.571000   -3.196000   -1.874000
  H     -1.962000    0.435000    0.509000
  H     -2.663000   -1.091000    1.147000
  H     -0.889000   -0.878000    1.072000
  H      2.661000   -0.977000    0.021000
  H      4.664000    0.535000    1.346000
  H      3.157000    2.329000    2.417000
  H      3.536000    2.669000    0.704000
  H      1.438000   -0.815000    1.108000
  H      0.322000   -2.309000    2.255000
  H      1.551000    4.018000    1.731000
  H     -0.601000    4.636000    1.456000
  H     -4.608000    2.341000    2.065000
  H     -3.383000    1.087000    2.510000
  H     -3.575000    2.595000    3.531000
  H      0.028000    3.932000   -0.999000
  H     -0.953000    2.472000   -0.728000
  H     -5.133000    4.777000   -0.698000
  H     -4.628000    4.759000   -2.475000
  H     -3.442000    2.712000   -1.161000
  H     -0.197000    6.323000   -0.279000
  H     -0.813000    8.673000   -0.489000
  H     -3.076000    9.307000   -1.141000
  H     -4.761000    7.577000   -1.596000
  H      0.911000   -1.088000    4.978000
  H      0.352000    0.027000    3.695000
  H      2.479000   -3.526000    2.662000
  H      2.654000   -2.702000    4.237000
  H     -3.326000    0.124000    6.132000
  H     -3.628000   -0.607000    4.507000
  H     -3.193000   -1.671000    5.937000
  H      1.327000   -3.828000    6.287000
  H     -0.291000   -5.652000    6.491000
  H     -1.764000   -7.224000    4.933000
  H     -2.245000   -7.650000    2.558000
  H     -1.139000   -6.347000    0.820000
  H      0.470000   -4.596000    1.407000

----------------------------
CARTESIAN COORDINATES (A.U.)
----------------------------
  NO LB      ZA    FRAG     MASS         X           Y           Z
   0 C     6.0000    0    12.011    5.888387   -1.632723  -16.776989
   1 C     6.0000    0    12.011    7.209305    0.154958  -15.539218
   2 C     6.0000    0    12.011    7.097811    0.349599  -13.008875
   3 C     6.0000    0    12.011    5.633274   -1.290683  -11.757876
   4 C     6.0000    0    12.011    5.145724   -1.581701   -9.286114
   5 C     6.0000    0    12.011    3.545126   -3.548906   -9.155723
   6 N     7.0000    0    14.007    3.116158   -4.352039  -11.376151
   7 C     6.0000    0    12.011    6.213420   -0.018897   -7.165841
   8 C     6.0000    0    12.011    5.262887   -0.767229   -4.522115
   9 C     6.0000    0    12.011    6.506327    0.750221   -2.399952
  10 N     7.0000    0    14.007    2.494438   -0.500777   -4.444636
  11 C     6.0000    0    12.011    0.937304   -1.776343   -2.823251
  12 O     8.0000    0    15.999   -1.564693   -1.250999   -3.110489
  13 O     8.0000    0    15.999    1.776343   -3.229542   -1.279345
  14 C     6.0000    0    12.011   -3.473317   -2.362158   -1.670518
  15 C     6.0000    0    12.011   -5.967755   -1.608157   -2.959311
  16 C     6.0000    0    12.011   -3.320249   -5.257218   -1.617606
  17 C     6.0000    0    12.011   -3.469537   -1.264227    1.007224
  18 N     7.0000    0    14.007    6.037675   -0.211649   -0.056692
  19 O     8.0000    0    15.999    7.751657    2.624830   -2.745772
  20 C     6.0000    0    12.011    6.714197    1.005334    2.341371
  21 C     6.0000    0    12.011    5.654061    3.713312    2.598373
  22 C     6.0000    0    12.011    5.614376   -0.585815    4.495658
  23 O     8.0000    0    15.999    6.525224   -0.627389    6.581916
  24 N     7.0000    0    14.007    3.486545   -1.887836    3.836144
  25 C     6.0000    0    12.011    2.054132   -3.524339    5.550126
  26 C     6.0000    0    12.011    2.851597    3.917402    1.993661
  27 N     7.0000    0    14.007    1.808468    6.219089    2.522784
  28 O     8.0000    0    15.999    1.644062    2.199641    1.118718
  29 C     6.0000    0    12.011   -0.880612    6.774668    2.080588
  30 C     6.0000    0    12.011   -2.560579    5.211865    3.847482
  31 O     8.0000    0    15.999   -5.036120    5.389499    3.186078
  32 O     8.0000    0    15.999   -1.759335    4.034565    5.638943
  33 C     6.0000    0    12.011   -6.795455    4.115824    4.722426
  34 C     6.0000    0    12.011   -1.551465    6.665064   -0.754001
  35 C     6.0000    0    12.011   -3.872049    8.163617   -1.439971
  36 C     6.0000    0    12.011   -4.062911   10.693960   -1.540127
  37 C     6.0000    0    12.011   -6.415620   11.357254   -2.226097
  38 C     6.0000    0    12.011   -8.097476    9.112259   -2.679632
  39 C     6.0000    0    12.011   -6.111374    7.162062   -2.095706
  40 C     6.0000    0    12.011   -2.311135   12.464634   -1.077144
  41 C     6.0000    0    12.011   -2.955532   14.909939   -1.300132
  42 C     6.0000    0    12.011   -5.312020   15.573233   -1.978543
  43 C     6.0000    0    12.011   -7.061907   13.795001   -2.450975
  44 C     6.0000    0    12.011    0.667073   -1.967205    7.587250
  45 C     6.0000    0    12.011    3.601818   -5.754216    6.591365
  46 C     6.0000    0    12.011    1.925631   -7.713862    7.778113
  47 C     6.0000    0    12.011   -2.088147   -2.662624    8.055903
  48 O     8.0000    0    15.999   -3.129386   -0.993996    9.722641
  49 O     8.0000    0    15.999   -3.208755   -4.401172    7.080804
  50 C     6.0000    0    12.011   -5.714532   -1.305801   10.276331
  51 C     6.0000    0    12.011    1.625164   -8.163617   10.255544
  52 N     7.0000    0    14.007    0.043464   -9.947518   10.527664
  53 C     6.0000    0    12.011   -0.738883  -10.724196    8.401722
  54 C     6.0000    0    12.011    0.411960   -9.369262    6.597034
  55 C     6.0000    0    12.011   -2.396173  -12.544002    7.827246
  56 C     6.0000    0    12.011   -2.879943  -12.971080    5.370602
  57 C     6.0000    0    12.011   -1.727210  -11.612367    3.554575
  58 C     6.0000    0    12.011   -0.056692   -9.790671    4.147949
  59 H     1.0000    0     1.008    3.333477   -4.748882  -16.508648
  60 H     1.0000    0     1.008    6.014998   -1.757445  -18.853798
  61 H     1.0000    0     1.008    8.405502    1.479656  -16.618252
  62 H     1.0000    0     1.008    8.182514    1.812247  -11.999761
  63 H     1.0000    0     1.008    2.662624   -4.455974   -7.521110
  64 H     1.0000    0     1.008    1.935080   -5.873269  -11.820237
  65 H     1.0000    0     1.008    8.314795   -0.190862   -7.233872
  66 H     1.0000    0     1.008    5.710752    1.995551   -7.536228
  67 H     1.0000    0     1.008    5.805239   -2.785456   -4.212200
  68 H     1.0000    0     1.008    1.644062    0.729434   -5.655950
  69 H     1.0000    0     1.008   -7.640163   -2.305466   -1.889726
  70 H     1.0000    0     1.008   -6.151059    0.483770   -3.110489
  71 H     1.0000    0     1.008   -6.084918   -2.392393   -4.909508
  72 H     1.0000    0     1.008   -5.123048   -6.086808   -0.922186
  73 H     1.0000    0     1.008   -1.850042   -6.005550   -0.321253
  74 H     1.0000    0     1.008   -2.968760   -6.039565   -3.541347
  75 H     1.0000    0     1.008   -3.707643    0.822031    0.961871
  76 H     1.0000    0     1.008   -5.032341   -2.061691    2.167516
  77 H     1.0000    0     1.008   -1.679967   -1.659180    2.025786
  78 H     1.0000    0     1.008    5.028561   -1.846262    0.039684
  79 H     1.0000    0     1.008    8.813683    1.011003    2.543571
  80 H     1.0000    0     1.008    5.965865    4.401172    4.567468
  81 H     1.0000    0     1.008    6.682072    5.043679    1.330367
  82 H     1.0000    0     1.008    2.717426   -1.540127    2.093817
  83 H     1.0000    0     1.008    0.608492   -4.363378    4.261332
  84 H     1.0000    0     1.008    2.930965    7.592920    3.271116
  85 H     1.0000    0     1.008   -1.135725    8.760770    2.751441
  86 H     1.0000    0     1.008   -8.707858    4.423849    3.902284
  87 H     1.0000    0     1.008   -6.392944    2.054132    4.743213
  88 H     1.0000    0     1.008   -6.755771    4.903839    6.672623
  89 H     1.0000    0     1.008    0.052912    7.430403   -1.887836
  90 H     1.0000    0     1.008   -1.800909    4.671403   -1.375721
  91 H     1.0000    0     1.008   -9.699964    9.027222   -1.319029
  92 H     1.0000    0     1.008   -8.745653    8.993207   -4.677072
  93 H     1.0000    0     1.008   -6.504437    5.124937   -2.193972
  94 H     1.0000    0     1.008   -0.372276   11.948738   -0.527234
  95 H     1.0000    0     1.008   -1.536347   16.389595   -0.924076
  96 H     1.0000    0     1.008   -5.812798   17.587681   -2.156178
  97 H     1.0000    0     1.008   -8.996986   14.318455   -3.016003
  98 H     1.0000    0     1.008    1.721541   -2.056022    9.407057
  99 H     1.0000    0     1.008    0.665184    0.051023    6.982538
 100 H     1.0000    0     1.008    4.684631   -6.663174    5.030451
 101 H     1.0000    0     1.008    5.015333   -5.106040    8.006770
 102 H     1.0000    0     1.008   -6.285229    0.234326   11.587801
 103 H     1.0000    0     1.008   -6.855926   -1.147064    8.516996
 104 H     1.0000    0     1.008   -6.033896   -3.157732   11.219304
 105 H     1.0000    0     1.008    2.507667   -7.233872   11.880708
 106 H     1.0000    0     1.008   -0.549910  -10.680732   12.266212
 107 H     1.0000    0     1.008   -3.333477  -13.651382    9.322019
 108 H     1.0000    0     1.008   -4.242435  -14.456405    4.833919
 109 H     1.0000    0     1.008   -2.152398  -11.994092    1.549575
 110 H     1.0000    0     1.008    0.888171   -8.685181    2.658845

--------------------------------
INTERNAL COORDINATES (ANGSTROEM)
--------------------------------
 C      0   0   0     0.000000000000     0.00000000     0.00000000
 C      1   0   0     1.346306800102     0.00000000     0.00000000
 C      2   1   0     1.344251092616   121.04208820     0.00000000
 C      3   2   1     1.338765476101   117.92288584     0.03643576
 C      4   3   2     1.342067062408   131.88348720   179.72094624
 C      5   4   3     1.343819556339   105.07608470   180.31008662
 N      6   5   4     1.269952361311   108.92930750   359.84359452
 C      5   4   3     1.504007313812   126.28175841   359.85368204
 C      8   5   4     1.538514218329   114.45693506   178.81919669
 C      9   8   5     1.529346919440   113.07290377   176.48637740
 N      9   8   5     1.472340653517   109.02502686   300.38839598
 C     11   9   8     1.367759116219   124.72574118   155.79998531
 O     12  11   9     1.361383120213   114.52478425   180.69148322
 O     12  11   9     1.206642449112   121.16977536     0.94573831
 C     13  12  11     1.395165939951   123.84898247   179.31870016
 C     15  13  12     1.538416393568   105.64737070   190.36122828
 C     15  13  12     1.534395320639   113.11314618   308.53927733
 C     15  13  12     1.531487512192   110.15184848    73.68676268
 N     10   9   8     1.363152596007   113.18042233   191.58884268
 O     10   9   8     1.204920744282   123.78427897    12.42336455
 C     19  10   9     1.467399400300   125.33853048   187.91782589
 C     21  19  10     1.544896760305   113.24233496    55.13615405
 C     21  19  10     1.532086159457   108.03562901   174.50618837
 O     23  21  19     1.204833598469   122.67512786   153.27069133
 N     23  21  19     1.365429602726   113.60291478   331.76593622
 C     25  23  21     1.465322148881   124.51308924   180.66355545
 C     22  21  19     1.520971071388   113.66626216    49.45428489
 N     27  22  21     1.366245951504   114.46421753   171.94552801
 O     27  22  21     1.203732113055   123.01780583   351.87611076
 C     28  27  22     1.471774778966   122.42106382   180.36389968
 C     30  28  27     1.532473490798   110.85954867    66.65447400
 O     31  30  28     1.359204178922   111.38770889   190.04688828
 O     31  30  28     1.211036333064   123.51242540    11.91575057
 C     32  31  30     1.407837348560   117.10004452   182.38393574
 C     30  28  27     1.542526823106   111.69170635   295.52571793
 C     35  30  28     1.506187903284   113.71579857   202.99554310
 C     36  35  30     1.343849321911   126.53942806    72.49360204
 C     37  36  35     1.343501023446   109.91452451   179.86016141
 C     38  37  36     1.503676826981   112.65628890   359.74738342
 C     36  35  30     1.343701603780   125.00029447   251.47992570
 C     37  36  35     1.340642756293   129.58489556     0.05983517
 C     41  37  36     1.343369271645   118.79394081   180.09539708
 C     42  41  37     1.344280848632   120.69303061   359.90395521
 C     38  37  36     1.339860067320   120.80173838   179.89636004
 C     26  25  23     1.542665226159   111.28378791    70.09246116
 C     26  25  23     1.538428418874   113.55371345   299.32430264
 C     46  26  25     1.502172426854   111.40027468   194.47418498
 C     45  26  25     1.524038057268   116.09868630   133.74731320
 O     48  45  26     1.364263171093   109.59072129   185.50670840
 O     48  45  26     1.210084707779   125.66215216     4.49804375
 C     49  48  45     1.408722115962   116.79906538   177.26961267
 C     47  46  26     1.341881514889   126.93048493   254.12050937
 N     52  47  46     1.269819278480   108.70821656   179.52738855
 C     53  52  47     1.267257669142   110.84068546   359.95984823
 C     54  53  52     1.340520421329   108.09253475     0.28744221
 C     54  53  52     1.337502897193   130.50364600   180.18181430
 C     56  54  53     1.344102674650   117.76064534   179.95817265
 C     57  56  54     1.346321655475   120.94962637     0.13769856
 C     55  54  53     1.338226064609   121.10514223   179.87982880
 H      1   2   3     2.137116983228   146.96186079   359.87578341
 H      1   2   3     1.103016772311   119.68633710   180.16226661
 H      2   1   3     1.103689720891   119.49616260   179.88717978
 H      3   2   1     1.101684165267   120.91614954   179.91150952
 H      6   5   4     1.093944239895   130.50943287   179.53286180
 H      7   6   5     1.045884792891   124.90984656   179.92177265
 H      8   5   4     1.116297899308   107.77824415   300.90482378
 H      8   5   4     1.116032257598   107.73777761    57.26093493
 H      9   8   5     1.117984346939   107.17820245    59.47737950
 H     11   9   8     1.018421327349   118.90418527   334.98234315
 H     16  15  13     1.113437021120   111.75785586   183.43058221
 H     16  15  13     1.114117588049   111.36060687   303.36375149
 H     16  15  13     1.114043535954   111.21090422    63.09345057
 H     17  15  13     1.112771764559   110.77333449   195.59022390
 H     17  15  13     1.110268436010   113.85228043    77.76702489
 H     17  15  13     1.114592302145   111.28448801   314.96310248
 H     18  15  13     1.111426110904   110.89811521    57.49797178
 H     18  15  13     1.113107811490   111.44305945   177.49012597
 H     18  15  13     1.109509351020   112.28018267   297.69885389
 H     19  10   9     1.017832009715   117.28136323     3.39946892
 H     21  19  10     1.116144703880   109.08244146   291.61544868
 H     22  21  19     1.116012992756   109.33207719   170.85685175
 H     22  21  19     1.114357662512   110.83743530   287.95628441
 H     25  23  21     1.024494509502   117.84016700   353.10674588
 H     26  25  23     1.116908680242   102.19782523   185.43515406
 H     28  27  22     1.018911674288   118.69843170   359.59640678
 H     30  28  27     1.117520022192   104.72390498   178.35224965
 H     34  32  31     1.113134762731   107.81570640   181.04970974
 H     34  32  31     1.111652373721   110.41756924   299.75214683
 H     34  32  31     1.113262772215   110.09188749    62.38898489
 H     35  30  28     1.115717706232   109.52208269   323.19693400
 H     35  30  28     1.112964509767   110.51146663    79.59378325
 H     39  38  37     1.113341367236   112.30482053   116.00482058
 H     39  38  37     1.113044024287   112.25242349   243.47022386
 H     40  36  35     1.099114188790   124.46936539     0.38866212
 H     41  37  36     1.100856938934   121.29366950     0.23907330
 H     42  41  37     1.103037170725   119.67619479   179.94693643
 H     43  42  41     1.102459523066   119.88218883   180.07492950
 H     44  38  37     1.102137015076   120.21368105   179.96385981
 H     45  26  25     1.113975762752   110.07293752   258.37722396
 H     45  26  25     1.114910310294   108.15128988    14.70998388
 H     46  26  25     1.114435283002   109.83488237   314.58043062
 H     46  26  25     1.112723685377   111.25477594    72.41365846
 H     51  49  48     1.112234237919   107.91643829   182.28739992
 H     51  49  48     1.112938902186   110.13237642   300.70751718
 H     51  49  48     1.112637407245   110.11743386    63.50881022
 H     52  47  46     1.095332369649   129.56061161   359.90147256
 H     53  52  47     1.046680467000   124.95961440   180.25450936
 H     56  54  53     1.102312569102   120.97740389     0.05715495
 H     57  56  54     1.103763108642   119.53846585   180.16542865
 H     58  57  56     1.103245212997   119.75405451   180.01043325
 H     59  55  54     1.101439512638   121.34708683   180.15587468

---------------------------
INTERNAL COORDINATES (A.U.)
---------------------------
 C      0   0   0     0.000000000000     0.00000000     0.00000000
 C      1   0   0     2.544151144428     0.00000000     0.00000000
 C      2   1   0     2.540266420269   121.04208820     0.00000000
 C      3   2   1     2.529900107380   117.92288584     0.03643576
 C      4   3   2     2.536139201307   131.88348720   179.72094624
 C      5   4   3     2.539450934889   105.07608470   180.31008662
 N      6   5   4     2.399862166005   108.92930750   359.84359452
 C      5   4   3     2.842161926519   126.28175841   359.85368204
 C      8   5   4     2.907370525785   114.45693506   178.81919669
 C      9   8   5     2.890046841497   113.07290377   176.48637740
 N      9   8   5     2.782320610986   109.02502686   300.38839598
 C     11   9   8     2.584690146828   124.72574118   155.79998531
 O     12  11   9     2.572641260545   114.52478425   180.69148322
 O     12  11   9     2.280223770386   121.16977536     0.94573831
 C     13  12  11     2.636481537883   123.84898247   179.31870016
 C     15  13  12     2.907185663779   105.64737070   190.36122828
 C     15  13  12     2.899586937179   113.11314618   308.53927733
 C     15  13  12     2.894091975563   110.15184848    73.68676268
 N     10   9   8     2.575985085197   113.18042233   191.58884268
 O     10   9   8     2.276970219773   123.78427897    12.42336455
 C     19  10   9     2.772982995647   125.33853048   187.91782589
 C     21  19  10     2.919431782158   113.24233496    55.13615405
 C     21  19  10     2.895223254945   108.03562901   174.50618837
 O     23  21  19     2.276805538053   122.67512786   153.27069133
 N     23  21  19     2.580288004301   113.60291478   331.76593622
 C     25  23  21     2.769057559353   124.51308924   180.66355545
 C     22  21  19     2.874218782541   113.66626216    49.45428489
 N     27  22  21     2.581830679920   114.46421753   171.94552801
 O     27  22  21     2.274724032280   123.01780583   351.87611076
 C     28  27  22     2.781251263058   122.42106382   180.36389968
 C     30  28  27     2.895955205103   110.85954867    66.65447400
 O     31  30  28     2.568523658245   111.38770889   190.04688828
 O     31  30  28     2.288527007718   123.51242540    11.91575057
 C     32  31  30     2.660427029884   117.10004452   182.38393574
 C     30  28  27     2.914953249897   111.69170635   295.52571793
 C     35  30  28     2.846282643432   113.71579857   202.99554310
 C     36  35  30     2.539507183667   126.53942806    72.49360204
 C     37  36  35     2.538848994956   109.91452451   179.86016141
 C     38  37  36     2.841537396918   112.65628890   359.74738342
 C     36  35  30     2.539228036854   125.00029447   251.47992570
 C     37  36  35     2.533447652818   129.58489556     0.05983517
 C     41  37  36     2.538600020134   118.79394081   180.09539708
 C     42  41  37     2.540322650991   120.69303061   359.90395521
 C     38  37  36     2.531968585013   120.80173838   179.89636004
 C     26  25  23     2.915214793764   111.28378791    70.09246116
 C     26  25  23     2.907208388314   113.55371345   299.32430264
 C     46  26  25     2.838694492682   111.40027468   194.47418498
 C     45  26  25     2.880014545909   116.09868630   133.74731320
 O     48  45  26     2.578083767960   109.59072129   185.50670840
 O     48  45  26     2.286728696548   125.66215216     4.49804375
 C     49  48  45     2.662098997966   116.79906538   177.26961267
 C     47  46  26     2.535788567311   126.93048493   254.12050937
 N     52  47  46     2.399610675901   108.70821656   179.52738855
 C     53  52  47     2.394769935790   110.84068546   359.95984823
 C     54  53  52     2.533216473240   108.09253475     0.28744221
 C     54  53  52     2.527514179021   130.50364600   180.18181430
 C     56  54  53     2.539985950959   117.76064534   179.95817265
 C     57  56  54     2.544179217015   120.94962637     0.13769856
 C     55  54  53     2.528880767387   121.10514223   179.87982880
 H      1   2   3     4.038565814452   146.96186079   359.87578341
 H      1   2   3     2.084399620790   119.68633710   180.16226661
 H      2   1   3     2.085671309308   119.49616260   179.88717978
 H      3   2   1     2.081881358432   120.91614954   179.91150952
 H      6   5   4     2.067255019183   130.50943287   179.53286180
 H      7   6   5     1.976435826196   124.90984656   179.92177265
 H      8   5   4     2.109497313564   107.77824415   300.90482378
 H      8   5   4     2.108995323483   107.73777761    57.26093493
 H      9   8   5     2.112684237725   107.17820245    59.47737950
 H     11   9   8     1.924537397635   118.90418527   334.98234315
 H     16  15  13     2.104091037285   111.75785586   183.43058221
 H     16  15  13     2.105377122397   111.36060687   303.36375149
 H     16  15  13     2.105237184218   111.21090422    63.09345057
 H     17  15  13     2.102833884577   110.77333449   195.59022390
 H     17  15  13     2.098103279196   113.85228043    77.76702489
 H     17  15  13     2.106274202030   111.28448801   314.96310248
 H     18  15  13     2.100290967698   110.89811521    57.49797178
 H     18  15  13     2.103468921244   111.44305945   177.49012597
 H     18  15  13     2.096668816452   112.28018267   297.69885389
 H     19  10   9     1.923423748700   117.28136323     3.39946892
 H     21  19  10     2.109207816160   109.08244146   291.61544868
 H     22  21  19     2.108958918207   109.33207719   170.85685175
 H     22  21  19     2.105830797385   110.83743530   287.95628441
 H     25  23  21     1.936014048665   117.84016700   353.10674588
 H     26  25  23     2.110651522257   102.19782523   185.43515406
 H     28  27  22     1.925464019059   118.69843170   359.59640678
 H     30  28  27     2.111806791116   104.72390498   178.35224965
 H     34  32  31     2.103519851709   107.81570640   181.04970974
 H     34  32  31     2.100718542457   110.41756924   299.75214683
 H     34  32  31     2.103761754576   110.09188749    62.38898489
 H     35  30  28     2.108400907546   109.52208269   323.19693400
 H     35  30  28     2.103198120233   110.51146663    79.59378325
 H     39  38  37     2.103910277642   112.30482053   116.00482058
 H     39  38  37     2.103348380899   112.25242349   243.47022386
 H     40  36  35     2.077024806721   124.46936539     0.38866212
 H     41  37  36     2.080318127213   121.29366950     0.23907330
 H     42  41  37     2.084438168205   119.67619479   179.94693643
 H     43  42  41     2.083346572329   119.88218883   180.07492950
 H     44  38  37     2.082737120551   120.21368105   179.96385981
 H     45  26  25     2.105109111428   110.07293752   258.37722396
 H     45  26  25     2.106875150341   108.15128988    14.70998388
 H     46  26  25     2.105977478853   109.83488237   314.58043062
 H     46  26  25     2.102743028091   111.25477594    72.41365846
 H     51  49  48     2.101818106438   107.91643829   182.28739992
 H     51  49  48     2.103149728919   110.13237642   300.70751718
 H     51  49  48     2.102579986049   110.11743386    63.50881022
 H     52  47  46     2.069878204255   129.56061161   359.90147256
 H     53  52  47     1.977939432355   124.95961440   180.25450936
 H     56  54  53     2.083068869582   120.97740389     0.05715495
 H     57  56  54     2.085809992060   119.53846585   180.16542865
 H     58  57  56     2.084831311123   119.75405451   180.01043325
 H     59  55  54     2.081419031965   121.34708683   180.15587468

---------------------
BASIS SET INFORMATION
---------------------
There are 4 groups of distinct atoms

 Group   1 Type C   : 12s6p3d1f contracted to 6s3p3d1f pattern {621111/411/111/1}
 Group   2 Type N   : 12s6p3d1f contracted to 6s3p3d1f pattern {621111/411/111/1}
 Group   3 Type O   : 12s7p3d1f contracted to 6s4p3d1f pattern {621111/4111/111/1}
 Group   4 Type H   : 5s3p1d contracted to 3s3p1d pattern {311/111/1}

Atom   0C    basis set group =>   1
Atom   1C    basis set group =>   1
Atom   2C    basis set group =>   1
Atom   3C    basis set group =>   1
Atom   4C    basis set group =>   1
Atom   5C    basis set group =>   1
Atom   6N    basis set group =>   2
Atom   7C    basis set group =>   1
Atom   8C    basis set group =>   1
Atom   9C    basis set group =>   1
Atom  10N    basis set group =>   2
Atom  11C    basis set group =>   1
Atom  12O    basis set group =>   3
Atom  13O    basis set group =>   3
Atom  14C    basis set group =>   1
Atom  15C    basis set group =>   1
Atom  16C    basis set group =>   1
Atom  17C    basis set group =>   1
Atom  18N    basis set group =>   2
Atom  19O    basis set group =>   3
Atom  20C    basis set group =>   1
Atom  21C    basis set group =>   1
Atom  22C    basis set group =>   1
Atom  23O    basis set group =>   3
Atom  24N    basis set group =>   2
Atom  25C    basis set group =>   1
Atom  26C    basis set group =>   1
Atom  27N    basis set group =>   2
Atom  28O    basis set group =>   3
Atom  29C    basis set group =>   1
Atom  30C    basis set group =>   1
Atom  31O    basis set group =>   3
Atom  32O    basis set group =>   3
Atom  33C    basis set group =>   1
Atom  34C    basis set group =>   1
Atom  35C    basis set group =>   1
Atom  36C    basis set group =>   1
Atom  37C    basis set group =>   1
Atom  38C    basis set group =>   1
Atom  39C    basis set group =>   1
Atom  40C    basis set group =>   1
Atom  41C    basis set group =>   1
Atom  42C    basis set group =>   1
Atom  43C    basis set group =>   1
Atom  44C    basis set group =>   1
Atom  45C    basis set group =>   1
Atom  46C    basis set group =>   1
Atom  47C    basis set group =>   1
Atom  48O    basis set group =>   3
Atom  49O    basis set group =>   3
Atom  50C    basis set group =>   1
Atom  51C    basis set group =>   1
Atom  52N    basis set group =>   2
Atom  53C    basis set group =>   1
Atom  54C    basis set group =>   1
Atom  55C    basis set group =>   1
Atom  56C    basis set group =>   1
Atom  57C    basis set group =>   1
Atom  58C    basis set group =>   1
Atom  59H    basis set group =>   4
Atom  60H    basis set group =>   4
Atom  61H    basis set group =>   4
Atom  62H    basis set group =>   4
Atom  63H    basis set group =>   4
Atom  64H    basis set group =>   4
Atom  65H    basis set group =>   4
Atom  66H    basis set group =>   4
Atom  67H    basis set group =>   4
Atom  68H    basis set group =>   4
Atom  69H    basis set group =>   4
Atom  70H    basis set group =>   4
Atom  71H    basis set group =>   4
Atom  72H    basis set group =>   4
Atom  73H    basis set group =>   4
Atom  74H    basis set group =>   4
Atom  75H    basis set group =>   4
Atom  76H    basis set group =>   4
Atom  77H    basis set group =>   4
Atom  78H    basis set group =>   4
Atom  79H    basis set group =>   4
Atom  80H    basis set group =>   4
Atom  81H    basis set group =>   4
Atom  82H    basis set group =>   4
Atom  83H    basis set group =>   4
Atom  84H    basis set group =>   4
Atom  85H    basis set group =>   4
Atom  86H    basis set group =>   4
Atom  87H    basis set group =>   4
Atom  88H    basis set group =>   4
Atom  89H    basis set group =>   4
Atom  90H    basis set group =>   4
Atom  91H    basis set group =>   4
Atom  92H    basis set group =>   4
Atom  93H    basis set group =>   4
Atom  94H    basis set group =>   4
Atom  95H    basis set group =>   4
Atom  96H    basis set group =>   4
Atom  97H    basis set group =>   4
Atom  98H    basis set group =>   4
Atom  99H    basis set group =>   4
Atom 100H    basis set group =>   4
Atom 101H    basis set group =>   4
Atom 102H    basis set group =>   4
Atom 103H    basis set group =>   4
Atom 104H    basis set group =>   4
Atom 105H    basis set group =>   4
Atom 106H    basis set group =>   4
Atom 107H    basis set group =>   4
Atom 108H    basis set group =>   4
Atom 109H    basis set group =>   4
Atom 110H    basis set group =>   4
---------------------------------
AUXILIARY/J BASIS SET INFORMATION
---------------------------------
There are 4 groups of distinct atoms

 Group   1 Type C   : 12s5p4d2f1g contracted to 6s4p3d1f1g pattern {711111/2111/211/2/1}
 Group   2 Type N   : 12s5p4d2f1g contracted to 6s4p3d1f1g pattern {711111/2111/211/2/1}
 Group   3 Type O   : 12s5p4d2f1g contracted to 6s4p3d1f1g pattern {711111/2111/211/2/1}
 Group   4 Type H   : 5s2p1d contracted to 3s1p1d pattern {311/2/1}

Atom   0C    basis set group =>   1
Atom   1C    basis set group =>   1
Atom   2C    basis set group =>   1
Atom   3C    basis set group =>   1
Atom   4C    basis set group =>   1
Atom   5C    basis set group =>   1
Atom   6N    basis set group =>   2
Atom   7C    basis set group =>   1
Atom   8C    basis set group =>   1
Atom   9C    basis set group =>   1
Atom  10N    basis set group =>   2
Atom  11C    basis set group =>   1
Atom  12O    basis set group =>   3
Atom  13O    basis set group =>   3
Atom  14C    basis set group =>   1
Atom  15C    basis set group =>   1
Atom  16C    basis set group =>   1
Atom  17C    basis set group =>   1
Atom  18N    basis set group =>   2
Atom  19O    basis set group =>   3
Atom  20C    basis set group =>   1
Atom  21C    basis set group =>   1
Atom  22C    basis set group =>   1
Atom  23O    basis set group =>   3
Atom  24N    basis set group =>   2
Atom  25C    basis set group =>   1
Atom  26C    basis set group =>   1
Atom  27N    basis set group =>   2
Atom  28O    basis set group =>   3
Atom  29C    basis set group =>   1
Atom  30C    basis set group =>   1
Atom  31O    basis set group =>   3
Atom  32O    basis set group =>   3
Atom  33C    basis set group =>   1
Atom  34C    basis set group =>   1
Atom  35C    basis set group =>   1
Atom  36C    basis set group =>   1
Atom  37C    basis set group =>   1
Atom  38C    basis set group =>   1
Atom  39C    basis set group =>   1
Atom  40C    basis set group =>   1
Atom  41C    basis set group =>   1
Atom  42C    basis set group =>   1
Atom  43C    basis set group =>   1
Atom  44C    basis set group =>   1
Atom  45C    basis set group =>   1
Atom  46C    basis set group =>   1
Atom  47C    basis set group =>   1
Atom  48O    basis set group =>   3
Atom  49O    basis set group =>   3
Atom  50C    basis set group =>   1
Atom  51C    basis set group =>   1
Atom  52N    basis set group =>   2
Atom  53C    basis set group =>   1
Atom  54C    basis set group =>   1
Atom  55C    basis set group =>   1
Atom  56C    basis set group =>   1
Atom  57C    basis set group =>   1
Atom  58C    basis set group =>   1
Atom  59H    basis set group =>   4
Atom  60H    basis set group =>   4
Atom  61H    basis set group =>   4
Atom  62H    basis set group =>   4
Atom  63H    basis set group =>   4
Atom  64H    basis set group =>   4
Atom  65H    basis set group =>   4
Atom  66H    basis set group =>   4
Atom  67H    basis set group =>   4
Atom  68H    basis set group =>   4
Atom  69H    basis set group =>   4
Atom  70H    basis set group =>   4
Atom  71H    basis set group =>   4
Atom  72H    basis set group =>   4
Atom  73H    basis set group =>   4
Atom  74H    basis set group =>   4
Atom  75H    basis set group =>   4
Atom  76H    basis set group =>   4
Atom  77H    basis set group =>   4
Atom  78H    basis set group =>   4
Atom  79H    basis set group =>   4
Atom  80H    basis set group =>   4
Atom  81H    basis set group =>   4
Atom  82H    basis set group =>   4
Atom  83H    basis set group =>   4
Atom  84H    basis set group =>   4
Atom  85H    basis set group =>   4
Atom  86H    basis set group =>   4
Atom  87H    basis set group =>   4
Atom  88H    basis set group =>   4
Atom  89H    basis set group =>   4
Atom  90H    basis set group =>   4
Atom  91H    basis set group =>   4
Atom  92H    basis set group =>   4
Atom  93H    basis set group =>   4
Atom  94H    basis set group =>   4
Atom  95H    basis set group =>   4
Atom  96H    basis set group =>   4
Atom  97H    basis set group =>   4
Atom  98H    basis set group =>   4
Atom  99H    basis set group =>   4
Atom 100H    basis set group =>   4
Atom 101H    basis set group =>   4
Atom 102H    basis set group =>   4
Atom 103H    basis set group =>   4
Atom 104H    basis set group =>   4
Atom 105H    basis set group =>   4
Atom 106H    basis set group =>   4
Atom 107H    basis set group =>   4
Atom 108H    basis set group =>   4
Atom 109H    basis set group =>   4
Atom 110H    basis set group =>   4


           ************************************************************
           *        Program running with 24 parallel MPI-processes    *
           *              working on a common directory               *
           ************************************************************
------------------------------------------------------------------------------
                           ORCA GTO INTEGRAL CALCULATION
                           -- RI-GTO INTEGRALS CHOSEN --
------------------------------------------------------------------------------
------------------------------------------------------------------------------
                   ___                                                        
                  /   \      - P O W E R E D   B Y -                         
                 /     \                                                     
                 |  |  |   _    _      __       _____    __    __             
                 |  |  |  | |  | |    /  \     |  _  \  |  |  /  |          
                  \  \/   | |  | |   /    \    | | | |  |  | /  /          
                 / \  \   | |__| |  /  /\  \   | |_| |  |  |/  /          
                |  |  |   |  __  | /  /__\  \  |    /   |      \           
                |  |  |   | |  | | |   __   |  |    \   |  |\   \          
                \     /   | |  | | |  |  |  |  | |\  \  |  | \   \       
                 \___/    |_|  |_| |__|  |__|  |_| \__\ |__|  \__/        
                                                                              
                      - O R C A' S   B I G   F R I E N D -                    
                                      &                                       
                       - I N T E G R A L  F E E D E R -                       
                                                                              
 v1 FN, 2020, v2 2021                                                         
------------------------------------------------------------------------------


Reading SHARK input file 24/24.SHARKINP.tmp ... ok
----------------------
SHARK INTEGRAL PACKAGE
----------------------

Number of atoms                             ...    111
Number of basis functions                   ...   3094
Number of shells                            ...   1140
Maximum angular momentum                    ...      3
Integral batch strategy                     ... SHARK/LIBINT Hybrid
RI-J (if used) integral strategy            ... SPLIT-RIJ (Revised 2003 algorithm where possible)
Printlevel                                  ...      1
Contraction scheme used                     ... SEGMENTED contraction
Coulomb Range Separation                    ... NOT USED
Exchange Range Separation                   ... Long Range
   Mu parameter                             ...  0.330000
   Scaling (regular/separated)              ...  0.190000  0.460000
Finite Nucleus Model                        ... NOT USED
Auxiliary Coulomb fitting basis             ... AVAILABLE
   # of basis functions in Aux-J            ...   3463
   # of shells in Aux-J                     ...   1145
   Maximum angular momentum in Aux-J        ...      4
Auxiliary J/K fitting basis                 ... NOT available
Auxiliary Correlation fitting basis         ... NOT available
Auxiliary 'external' fitting basis          ... NOT available
Integral threshold                          ...     1.000000e-10
Primitive cut-off                           ...     1.000000e-11
Primitive pair pre-selection threshold      ...     1.000000e-11

Calculating pre-screening integrals         ... done (  0.3 sec) Dimension = 1140
Organizing shell pair data                  ... done (  4.2 sec)
Shell pair information
Total number of shell pairs                 ...    650370
Shell pairs after pre-screening             ...    350439
Total number of primitive shell pairs       ...   1577654
Primitive shell pairs kept                  ...    566752
          la=0 lb=0:  70593 shell pairs
          la=1 lb=0:  98087 shell pairs
          la=1 lb=1:  34535 shell pairs
          la=2 lb=0:  62060 shell pairs
          la=2 lb=1:  43571 shell pairs
          la=2 lb=2:  13834 shell pairs
          la=3 lb=0:  12732 shell pairs
          la=3 lb=1:   9073 shell pairs
          la=3 lb=2:   5480 shell pairs
          la=3 lb=3:    474 shell pairs

Calculating one electron integrals          ... done (  0.9 sec)
Calculating RI/J V-Matrix + Cholesky decomp.... done (  1.6 sec)
Calculating Nuclear repulsion               ... done (  0.0 sec) ENN=   9024.734958205374 Eh

SHARK setup successfully completed in  13.0 seconds

Maximum memory used throughout the entire GTOINT-calculation: 512.1 MB


           ************************************************************
           *        Program running with 24 parallel MPI-processes    *
           *              working on a common directory               *
           ************************************************************
-------------------------------------------------------------------------------
                                 ORCA SCF
-------------------------------------------------------------------------------

------------
SCF SETTINGS
------------
Hamiltonian:
 Density Functional     Method          .... DFT(GTOs)
 Exchange Functional    Exchange        .... WB88
 Correlation Functional Correlation     .... LYP
 LDA part of GGA corr.  LDAOpt          .... VWN-5
 Gradients option       PostSCFGGA      .... off
 Hybrid DFT is turned on
   Fraction HF Exchange ScalHFX         ....  0.190000
   Scaling of DF-GGA-X  ScalDFX         ....  0.350000
   Scaling of DF-GGA-C  ScalDFC         ....  0.810000
   Scaling of DF-LDA-C  ScalLDAC        ....  1.000000
   Perturbative correction              ....  0.000000
   Density functional embedding theory  .... OFF
 Long-range corrected/Screened/Range-Separated Hybrid DFT is turned on
   Amount of maximum screened exact exchange              ....  0.460000
   Range separation parameter mu (erf(mu*r12)/r12)        ....  0.330000
 RI-approximation to the Coulomb term is turned on
   Number of AuxJ basis functions       .... 3463
   RIJ-COSX (HFX calculated with COS-X)).... on


General Settings:
 Integral files         IntName         .... 24/24
 Hartree-Fock type      HFTyp           .... RHF
 Total Charge           Charge          ....    0
 Multiplicity           Mult            ....    1
 Number of Electrons    NEL             ....  430
 Basis Dimension        Dim             .... 3094
 Nuclear Repulsion      ENuc            ....   9024.7349582054 Eh

Convergence Acceleration:
 DIIS                   CNVDIIS         .... on
   Start iteration      DIISMaxIt       ....    12
   Startup error        DIISStart       ....  0.200000
   # of expansion vecs  DIISMaxEq       ....     5
   Bias factor          DIISBfac        ....   1.050
   Max. coefficient     DIISMaxC        ....  10.000
 Trust-Rad. Augm. Hess. CNVTRAH         .... auto
   Auto Start mean grad. ratio tolernc. ....  1.125000
   Auto Start start iteration           ....    20
   Auto Start num. interpolation iter.  ....    10
   Max. Number of Micro iterations      ....    16
   Max. Number of Macro iterations      .... Maxiter - #DIIS iter
   Number of Davidson start vectors     ....     2
   Converg. threshold I  (grad. norm)   ....   5.000e-05
   Converg. threshold II (energy diff.) ....   1.000e-06
   Grad. Scal. Fac. for Micro threshold ....   0.100
   Minimum threshold for Micro iter.    ....   0.010
   NR start threshold (gradient norm)   ....   0.001
   Initial trust radius                 ....   0.400
   Minimum AH scaling param. (alpha)    ....   1.000
   Maximum AH scaling param. (alpha)    .... 1000.000
   Orbital update algorithm             .... Taylor
   White noise on init. David. guess    .... on
   Maximum white noise                  ....   0.010
   Quad. conv. algorithm                .... NR
 SOSCF                  CNVSOSCF        .... on
   Start iteration      SOSCFMaxIt      ....   150
   Startup grad/error   SOSCFStart      ....  0.003300
 Level Shifting         CNVShift        .... on
   Level shift para.    LevelShift      ....    0.2500
   Turn off err/grad.   ShiftErr        ....    0.0010
 Zerner damping         CNVZerner       .... off
 Static damping         CNVDamp         .... on
   Fraction old density DampFac         ....    0.7000
   Max. Damping (<1)    DampMax         ....    0.9800
   Min. Damping (>=0)   DampMin         ....    0.0000
   Turn off err/grad.   DampErr         ....    0.1000
 Fernandez-Rico         CNVRico         .... off

SCF Procedure:
 Maximum # iterations   MaxIter         ....   125
 SCF integral mode      SCFMode         .... Direct
   Integral package                     .... SHARK and LIBINT hybrid scheme
 Reset frequency        DirectResetFreq ....    20
 Integral Threshold     Thresh          ....  1.000e-10 Eh
 Primitive CutOff       TCut            ....  1.000e-11 Eh

Convergence Tolerance:
 Convergence Check Mode ConvCheckMode   .... Total+1el-Energy
 Convergence forced     ConvForced      .... 1
 Energy Change          TolE            ....  1.000e-06 Eh
 1-El. energy change                    ....  1.000e-03 Eh
 Orbital Gradient       TolG            ....  5.000e-05
 Orbital Rotation angle TolX            ....  5.000e-05
 DIIS Error             TolErr          ....  1.000e-06


Diagonalization of the overlap matrix:
Smallest eigenvalue                        ... 1.064e-07
Time for diagonalization                   ...    1.485 sec
Threshold for overlap eigenvalues          ... 1.000e-08
Number of eigenvalues below threshold      ... 0
Time for construction of square roots      ...    1.648 sec
Total time needed                          ...    3.176 sec

Time for model grid setup =    2.194 sec

------------------------------
INITIAL GUESS: MODEL POTENTIAL
------------------------------
Loading Hartree-Fock densities                     ... done
Calculating cut-offs                               ... done
Initializing the effective Hamiltonian             ... done
Setting up the integral package (SHARK)            ... done
Starting the Coulomb interaction                   ... done (   6.2 sec)
Reading the grid                                   ... done
Mapping shells                                     ... done
Starting the XC term evaluation                    ... done (   2.3 sec)
  promolecular density results
     # of electrons  =    429.959632379
     EX              =   -353.444487573
     EC              =    -14.529497890
     EX+EC           =   -367.973985463
Transforming the Hamiltonian                       ... done (   1.1 sec)
Diagonalizing the Hamiltonian                      ... done (   1.9 sec)
Back transforming the eigenvectors                 ... done (   0.6 sec)
Now organizing SCF variables                       ... done
                      ------------------
                      INITIAL GUESS DONE (  15.2 sec)
                      ------------------
-------------------
DFT GRID GENERATION
-------------------

General Integration Accuracy     IntAcc      ... 4.959
Radial Grid Type                 RadialGrid  ... OptM3 with GC (2021)
Angular Grid (max. ang.)         AngularGrid ... 6 (Lebedev-590)
Angular grid pruning method      GridPruning ... 4 (adaptive)
Weight generation scheme         WeightScheme... Becke
Basis function cutoff            BFCut       ... 1.0000e-10
Integration weight cutoff        WCut        ... 1.0000e-14
Angular grids for H and He will be reduced by one unit
Partially contracted basis set               ... off
Rotationally invariant grid construction     ... off

Total number of grid points                  ...  1316412
Total number of batches                      ...    20624
Average number of points per batch           ...       63
Average number of grid points per atom       ...    11860
Time for grid setup =   27.381 sec

--------------------
COSX GRID GENERATION
--------------------

GRIDX 1
-------
General Integration Accuracy     IntAcc      ... 4.020
Radial Grid Type                 RadialGrid  ... OptM3 with GC (2021)
Angular Grid (max. ang.)         AngularGrid ... 2 (Lebedev-110)
Angular grid pruning method      GridPruning ... 4 (adaptive)
Weight generation scheme         WeightScheme... Becke
Basis function cutoff            BFCut       ... 1.0000e-10
Integration weight cutoff        WCut        ... 1.0000e-14
Angular grids for H and He will be reduced by one unit
Partially contracted basis set               ... on
Rotationally invariant grid construction     ... off

Total number of grid points                  ...   152611
Total number of batches                      ...     2440
Average number of points per batch           ...       62
Average number of grid points per atom       ...     1375
UseSFitting                                  ... on

GRIDX 2
-------
General Integration Accuracy     IntAcc      ... 4.338
Radial Grid Type                 RadialGrid  ... OptM3 with GC (2021)
Angular Grid (max. ang.)         AngularGrid ... 3 (Lebedev-194)
Angular grid pruning method      GridPruning ... 4 (adaptive)
Weight generation scheme         WeightScheme... Becke
Basis function cutoff            BFCut       ... 1.0000e-10
Integration weight cutoff        WCut        ... 1.0000e-14
Angular grids for H and He will be reduced by one unit
Partially contracted basis set               ... on
Rotationally invariant grid construction     ... off

Total number of grid points                  ...   335193
Total number of batches                      ...     5304
Average number of points per batch           ...       63
Average number of grid points per atom       ...     3020
UseSFitting                                  ... on

GRIDX 3
-------
General Integration Accuracy     IntAcc      ... 4.871
Radial Grid Type                 RadialGrid  ... OptM3 with GC (2021)
Angular Grid (max. ang.)         AngularGrid ... 4 (Lebedev-302)
Angular grid pruning method      GridPruning ... 4 (adaptive)
Weight generation scheme         WeightScheme... Becke
Basis function cutoff            BFCut       ... 1.0000e-10
Integration weight cutoff        WCut        ... 1.0000e-14
Angular grids for H and He will be reduced by one unit
Partially contracted basis set               ... on
Rotationally invariant grid construction     ... off

Total number of grid points                  ...   617733
Total number of batches                      ...     9707
Average number of points per batch           ...       63
Average number of grid points per atom       ...     5565
UseSFitting                                  ... on

Time for X-Grid setup             =   42.112 sec


--------------------
CPCM SOLVATION MODEL
--------------------
CPCM parameters:
  Epsilon                                         ...      36.6000
  Refrac                                          ...       1.3440
  Rsolv                                           ...       1.3000
  Surface type                                    ... GAUSSIAN VDW
  Epsilon function type                           ...         CPCM
Radii:
 Radius for C  used is    3.8550 Bohr (=   2.0400 Ang.)
 Radius for N  used is    3.5149 Bohr (=   1.8600 Ang.)
 Radius for O  used is    3.4469 Bohr (=   1.8240 Ang.)
 Radius for H  used is    2.4944 Bohr (=   1.3200 Ang.)
Calculating surface                               ...        done! (  0.0s)
GEPOL surface points                              ...         5692
GEPOL Volume                                      ...    6350.3417
GEPOL Surface-area                                ...    2996.5771
Calculating surface distance matrix               ...        done! (  0.7s)
Performing Cholesky decomposition & store         ...        done! (  2.8s)
Overall time for CPCM initialization              ...                 3.5s
--------------
SCF ITERATIONS
--------------
ITER       Energy         Delta-E        Max-DP      RMS-DP      [F,P]     Damp
               ***  Starting incremental Fock matrix formation  ***
  0  -2711.2169170820   0.000000000000 3.43785711  0.00548785  0.2718215 0.7000
  1  -2711.9547915913  -0.73787450931246.29120210  0.04321194  0.1244002 0.7000
                               ***Turning on DIIS***
  2  -2712.2878957568  -0.3331041655333177472.93952459 2604.70168462  0.0445510 0.0000
  3  -2710.2919775485   1.995918208279392437.87933612 583.22398368  0.1464592 0.7000
  4  -2709.5390684036   0.752909144896361766.47681771 684.06252595  0.1158285 0.7000
  5  -2708.2177501114   1.3213182922611021836.98348400 1728.45111788  0.0882056 0.0000
  6  -2704.9473001867   3.27044992470528392.21868886 58.30453585  0.1225357 0.7000
  7  -2704.9612730137  -0.013972827059360333.74316046 852.44117796  0.1145890 0.7000
  8  -2702.2020803544   2.7591926592951120728.95269931 1990.52630505  0.0774683 0.0000
  9  -2695.3748251949   6.82725515952091812.99577991 179.74634530  0.1586302 0.7000
 10  -2695.3689964056   0.00582878927267758.85295712 170.38625576  0.1468166 0.7000
 11  -2695.3211803728   0.04781603286589271.36155586 232.34960461  0.1364488 0.7000
 12  -2695.3026253641   0.018555008696226934.25090902 435.32592309  0.1247010 0.7000
 13  -2695.1131319961   0.1894933680291429942.31879713 3180.17815702  0.0973871 0.0000
 14  -2680.9555295153  14.157602480740128403.46160641 194.03300281  0.2509388 0.7000
 15  -2681.3407459679  -0.385216452568128374.64423489 271.47319688  0.2207823 0.7000
 16  -2681.9880684642  -0.647322496292264107.39266062 450.49776732  0.1798752 0.7000
 17  -2682.8907006354  -0.902632171180345224.25535125 527.10355316  0.1302418 0.7000
 18  -2683.3275375342  -0.436836898871634112.27245979 917.63092217  0.1127515 0.7000
 19  -2680.6352668153   2.6922707188911276324.88708753 1296.82995030  0.1105108 0.7000
               *** Restarting incremental Fock matrix formation ***
                                   *** Resetting DIIS ***

 WARNING: the maximum gradient error descreased on average only by a factor   1.1
          during the last 20 iterations

                      *** Initiating the TRAH-SCF procedure ***


TRAH GRIDX
----------

General Integration Accuracy     IntAcc      ... 3.067
Radial Grid Type                 RadialGrid  ... OptM3 with GC (2021)
Angular Grid (max. ang.)         AngularGrid ... 2 (Lebedev-110)
Angular grid pruning method      GridPruning ... 4 (adaptive)
Weight generation scheme         WeightScheme... Becke
Basis function cutoff            BFCut       ... 1.0000e-10
Integration weight cutoff        WCut        ... 1.0000e-14
Angular grids for H and He will be reduced by one unit
Partially contracted basis set               ... on
Rotationally invariant grid construction     ... off

Total number of grid points                  ...    84728
Total number of batches                      ...     1380
Average number of points per batch           ...       61
Average number of grid points per atom       ...      763


TRAH GRID
---------

General Integration Accuracy     IntAcc      ... 3.467
Radial Grid Type                 RadialGrid  ... OptM3 with GC (2021)
Angular Grid (max. ang.)         AngularGrid ... 3 (Lebedev-194)
Angular grid pruning method      GridPruning ... 4 (adaptive)
Weight generation scheme         WeightScheme... Becke
Basis function cutoff            BFCut       ... 1.0000e-10
Integration weight cutoff        WCut        ... 1.0000e-14
Angular grids for H and He will be reduced by one unit
Partially contracted basis set               ... off
Rotationally invariant grid construction     ... off

Total number of grid points                  ...   207099
Total number of batches                      ...     3292
Average number of points per batch           ...       62
Average number of grid points per atom       ...     1866

 --------------------------------------------------------------------------------------------
   Iter.        energy            ||Error||_2        Shift      TRadius  Mac/Mic        Rej.
 --------------------------------------------------------------------------------------------
WARNING: 2443 diagonal Hessian elements are negative!
    0      -2702.635498265831     6.978159e+00                     0.400 (TRAH MAcro)   No
WARNING : negative HOMO - LUMO gap : -1.276775
    0     dE    -2.108913e+00     4.775136e+00    -8.9160e+00      0.400 (TRAH MIcro)
    0     dE    -2.234116e+00     3.230963e+00    -1.1485e+01      0.400 (TRAH MIcro)
    0     dE    -2.312758e+00     1.058782e+00    -1.2546e+01      0.400 (TRAH MIcro)
    0     dE    -2.334083e+00     2.174311e-01    -1.2657e+01      0.400 (TRAH MIcro)
    0     dE    -2.334365e+00     1.753005e-01    -1.2655e+01      0.400 (TRAH MIcro)
    0     dE    -2.334570e+00     7.742240e-02    -1.2651e+01      0.400 (TRAH MIcro)
    0     dE    -2.334640e+00     2.895438e-02    -1.2648e+01      0.400 (TRAH MIcro)
    0     dE    -2.334639e+00     2.885850e-02    -1.2648e+01      0.400 (TRAH MIcro)
    0     dE    -2.334634e+00     2.722296e-02    -1.2648e+01      0.400 (TRAH MIcro)
    0     dE    -2.334634e+00     2.585845e-02    -1.2648e+01      0.400 (TRAH MIcro)
    0     dE    -2.334639e+00     2.609066e-02    -1.2648e+01      0.400 (TRAH MIcro)
    0     dE    -2.334635e+00     2.609277e-02    -1.2648e+01      0.400 (TRAH MIcro)
    0     dE    -2.334636e+00     2.681372e-02    -1.2648e+01      0.400 (TRAH MIcro)
    0     dE    -2.334636e+00     2.685722e-02    -1.2648e+01      0.400 (TRAH MIcro)
WARNING: 1664 diagonal Hessian elements are negative!
    1      -2704.484455944558     4.696890e+00                     0.480 (TRAH MAcro)   No
WARNING : negative HOMO - LUMO gap : -1.067639
    1     dE    -1.605637e+00     2.580063e+00    -4.1527e+00      0.480 (TRAH MIcro)
    1     dE    -1.775142e+00     1.230543e+00    -6.4904e+00      0.480 (TRAH MIcro)
    1     dE    -1.820550e+00     4.295043e-01    -6.8644e+00      0.480 (TRAH MIcro)
    1     dE    -1.830225e+00     1.327544e-01    -6.8445e+00      0.480 (TRAH MIcro)
    1     dE    -1.830713e+00     7.992869e-02    -6.8392e+00      0.480 (TRAH MIcro)
    1     dE    -1.830845e+00     3.055491e-02    -6.8393e+00      0.480 (TRAH MIcro)
    1     dE    -1.830878e+00     1.198739e-02    -6.8397e+00      0.480 (TRAH MIcro)
    1     dE    -1.830874e+00     1.557335e-02    -6.8399e+00      0.480 (TRAH MIcro)
    1     dE    -1.830878e+00     1.395801e-02    -6.8395e+00      0.480 (TRAH MIcro)
    1     dE    -1.830881e+00     1.321927e-02    -6.8392e+00      0.480 (TRAH MIcro)
    1     dE    -1.830889e+00     1.659519e-02    -6.8385e+00      0.480 (TRAH MIcro)
    1     dE    -1.830887e+00     1.725678e-02    -6.8384e+00      0.480 (TRAH MIcro)
    1     dE    -1.830895e+00     1.683304e-02    -6.8384e+00      0.480 (TRAH MIcro)
    1     dE    -1.830896e+00     1.731057e-02    -6.8384e+00      0.480 (TRAH MIcro)
WARNING: 1013 diagonal Hessian elements are negative!
    2      -2706.008944614255     2.929981e+00                     0.576 (TRAH MAcro)   No
WARNING : negative HOMO - LUMO gap : -0.844687
    2     dE    -1.045986e+00     2.096172e+00    -1.6078e+00      0.549 (TRAH MIcro)
    2     dE    -1.334711e+00     5.114979e-01    -3.6431e+00      0.576 (TRAH MIcro)
    2     dE    -1.349285e+00     1.842092e-01    -3.7318e+00      0.576 (TRAH MIcro)
    2     dE    -1.351893e+00     5.884107e-02    -3.7253e+00      0.576 (TRAH MIcro)
    2     dE    -1.352947e+00     7.201885e-02    -3.7530e+00      0.576 (TRAH MIcro)
    2     dE    -1.092282e+00     1.314540e-01    -4.7180e+00      0.455 (TRAH MIcro)
    2     dE    -1.086957e+00     4.265332e-02    -4.7223e+00      0.452 (TRAH MIcro)
    2     dE    -1.086653e+00     1.906375e-02    -4.7227e+00      0.452 (TRAH MIcro)
    2     dE    -1.086521e+00     1.611426e-02    -4.7229e+00      0.452 (TRAH MIcro)
    2     dE    -1.086487e+00     1.677711e-02    -4.7229e+00      0.452 (TRAH MIcro)
    2     dE    -1.086480e+00     1.656353e-02    -4.7229e+00      0.452 (TRAH MIcro)
    2     dE    -1.086480e+00     1.654317e-02    -4.7229e+00      0.452 (TRAH MIcro)
    2     dE    -1.086480e+00     1.684110e-02    -4.7229e+00      0.452 (TRAH MIcro)
    2     dE    -1.086485e+00     1.688033e-02    -4.7229e+00      0.452 (TRAH MIcro)
WARNING: 610 diagonal Hessian elements are negative!
    3      -2707.073901966301     1.882702e+00                     0.691 (TRAH MAcro)   No
WARNING : negative HOMO - LUMO gap : -0.654985
    3     dE    -6.813879e-01     1.781613e+00    -1.0428e+00      0.554 (TRAH MIcro)
    3     dE    -1.080701e+00     3.896067e-01    -2.2475e+00      0.691 (TRAH MIcro)
    3     dE    -8.397310e-01     2.364747e-01    -3.1699e+00      0.523 (TRAH MIcro)
    3     dE    -9.121476e-01     7.456683e-02    -3.1945e+00      0.561 (TRAH MIcro)
    3     dE    -9.233754e-01     4.050797e-02    -3.1964e+00      0.567 (TRAH MIcro)
    3     dE    -9.335784e-01     1.865798e-02    -3.1971e+00      0.573 (TRAH MIcro)
    3     dE    -9.347185e-01     1.607514e-02    -3.1972e+00      0.573 (TRAH MIcro)
    3     dE    -9.346883e-01     1.765447e-02    -3.1972e+00      0.573 (TRAH MIcro)
    3     dE    -9.342209e-01     1.772783e-02    -3.1972e+00      0.573 (TRAH MIcro)
    3     dE    -9.340462e-01     1.900674e-02    -3.1972e+00      0.573 (TRAH MIcro)
    3     dE    -9.340745e-01     1.884499e-02    -3.1972e+00      0.573 (TRAH MIcro)
    3     dE    -9.338515e-01     2.034421e-02    -3.1972e+00      0.573 (TRAH MIcro)
    3     dE    -9.336809e-01     2.143655e-02    -3.1973e+00      0.573 (TRAH MIcro)
    3     dE    -9.337412e-01     2.128257e-02    -3.1973e+00      0.573 (TRAH MIcro)
WARNING: 286 diagonal Hessian elements are negative!
    4      -2708.095354041370     1.433971e+00                     0.829 (TRAH MAcro)   No
WARNING : negative HOMO - LUMO gap : -0.450889
    4     dE    -8.065107e-01     2.229272e+00    -1.0500e+00      0.732 (TRAH MIcro)
    4     dE    -1.301429e+00     5.639065e-01    -2.3306e+00      0.829 (TRAH MIcro)
    4     dE    -1.323433e+00     1.168783e-01    -2.4400e+00      0.829 (TRAH MIcro)
    4     dE    -1.324957e+00     4.216594e-02    -2.4500e+00      0.829 (TRAH MIcro)
    4     dE    -1.325144e+00     1.651974e-02    -2.4527e+00      0.829 (TRAH MIcro)
    4     dE    -1.325203e+00     1.038168e-02    -2.4535e+00      0.829 (TRAH MIcro)
    4     dE    -1.325230e+00     1.168093e-02    -2.4537e+00      0.829 (TRAH MIcro)
    4     dE    -1.325228e+00     1.130587e-02    -2.4538e+00      0.829 (TRAH MIcro)
    4     dE    -1.325232e+00     1.090621e-02    -2.4538e+00      0.829 (TRAH MIcro)
    4     dE    -1.325237e+00     1.297178e-02    -2.4538e+00      0.829 (TRAH MIcro)
    4     dE    -1.325241e+00     1.395755e-02    -2.4539e+00      0.829 (TRAH MIcro)
    4     dE    -1.325244e+00     1.220641e-02    -2.4540e+00      0.829 (TRAH MIcro)
    4     dE    -1.325243e+00     1.200151e-02    -2.4540e+00      0.829 (TRAH MIcro)
    4     dE    -1.325247e+00     1.252104e-02    -2.4539e+00      0.829 (TRAH MIcro)
WARNING: 133 diagonal Hessian elements are negative!
    5      -2709.328808868482     1.028304e+00                     0.995 (TRAH MAcro)   No
WARNING : negative HOMO - LUMO gap : -0.358685
    5     dE    -3.208582e-01     1.788839e+00    -5.1359e-01      0.499 (TRAH MIcro)
    5     dE    -8.031092e-01     1.066069e+00    -8.3617e-01      0.960 (TRAH MIcro)
    5     dE    -1.096672e+00     7.523676e-01    -1.5872e+00      0.995 (TRAH MIcro)
    5     dE    -7.673223e-01     2.306297e-01    -1.8879e+00      0.746 (TRAH MIcro)
    5     dE    -7.764213e-01     7.014111e-02    -1.8920e+00      0.751 (TRAH MIcro)
    5     dE    -7.764347e-01     3.295011e-02    -1.8928e+00      0.751 (TRAH MIcro)
    5     dE    -7.792935e-01     1.749737e-02    -1.8931e+00      0.753 (TRAH MIcro)
    5     dE    -7.820567e-01     2.594325e-02    -1.8931e+00      0.755 (TRAH MIcro)
    5     dE    -7.823263e-01     2.594757e-02    -1.8931e+00      0.755 (TRAH MIcro)
    5     dE    -7.823277e-01     2.604154e-02    -1.8931e+00      0.755 (TRAH MIcro)
    5     dE    -7.823696e-01     2.668974e-02    -1.8931e+00      0.755 (TRAH MIcro)
    5     dE    -7.823367e-01     2.792503e-02    -1.8931e+00      0.755 (TRAH MIcro)
    5     dE    -7.823047e-01     2.461431e-02    -1.8931e+00      0.755 (TRAH MIcro)
    5     dE    -7.822414e-01     2.573155e-02    -1.8931e+00      0.755 (TRAH MIcro)
WARNING: 48 diagonal Hessian elements are negative!
    6      -2710.198001964477     9.133186e-01                     1.194 (TRAH MAcro)   No
WARNING : negative HOMO - LUMO gap : -0.279321
    6     dE    -2.599187e-01     2.543673e+00    -4.2670e-01      0.467 (TRAH MIcro)
    6     dE    -6.727692e-01     1.286721e+00    -7.3327e-01      0.914 (TRAH MIcro)
    6     dE    -7.790084e-01     4.240163e-01    -7.7833e-01      1.001 (TRAH MIcro)
    6     dE    -1.088646e+00     9.556093e-01    -1.0737e+00      1.194 (TRAH MIcro)
    6     dE    -1.172868e+00     5.836808e-01    -1.2581e+00      1.194 (TRAH MIcro)
    6     dE    -1.191783e+00     1.874933e-01    -1.2962e+00      1.194 (TRAH MIcro)
    6     dE    -1.198287e+00     2.384216e-01    -1.3093e+00      1.194 (TRAH MIcro)
    6     dE    -4.107857e-01     3.866696e-01    -1.5720e+00      0.516 (TRAH MIcro)
    6     dE    -4.027101e-01     2.372865e-02    -1.5815e+00      0.503 (TRAH MIcro)
    6     dE    -4.026989e-01     1.103400e-02    -1.5815e+00      0.503 (TRAH MIcro)
    6     dE    -4.026982e-01     1.059007e-02    -1.5815e+00      0.503 (TRAH MIcro)
    6     dE    -4.026999e-01     1.040792e-02    -1.5815e+00      0.503 (TRAH MIcro)
    6     dE    -4.026980e-01     9.822581e-03    -1.5815e+00      0.503 (TRAH MIcro)
WARNING: 23 diagonal Hessian elements are negative!
    7      -2710.712860824210     6.105676e-01                     1.433 (TRAH MAcro)   No
WARNING : negative HOMO - LUMO gap : -0.239402
    7     dE    -2.199585e-01     1.972359e+00    -3.3713e-01      0.552 (TRAH MIcro)
    7     dE    -1.211485e+00     1.908336e+00    -8.6748e-01      1.433 (TRAH MIcro)
    7     dE    -1.508423e+00     6.148730e-01    -1.2145e+00      1.433 (TRAH MIcro)
    7     dE    -1.540435e+00     2.971094e-01    -1.2535e+00      1.433 (TRAH MIcro)
    7     dE    -1.546337e+00     1.607171e-01    -1.2611e+00      1.433 (TRAH MIcro)
    7     dE    -1.550500e+00     1.750185e-01    -1.2684e+00      1.433 (TRAH MIcro)
    7     dE    -1.552217e+00     7.335232e-02    -1.2725e+00      1.433 (TRAH MIcro)
    7     dE    -1.552501e+00     8.497769e-02    -1.2733e+00      1.433 (TRAH MIcro)
    7     dE    -1.552536e+00     6.769859e-02    -1.2733e+00      1.433 (TRAH MIcro)
    7     dE    -1.552537e+00     6.484435e-02    -1.2733e+00      1.433 (TRAH MIcro)
    7     dE    -1.552540e+00     6.926426e-02    -1.2734e+00      1.433 (TRAH MIcro)
    7     dE    -1.552544e+00     7.229354e-02    -1.2734e+00      1.433 (TRAH MIcro)
    7     dE    -1.552549e+00     7.021102e-02    -1.2734e+00      1.433 (TRAH MIcro)
    7     dE    -1.552551e+00     6.782107e-02    -1.2734e+00      1.433 (TRAH MIcro)
WARNING: 4 diagonal Hessian elements are negative!
    8      -2711.705453121331     6.181390e-01                     1.433 (TRAH MAcro)   No
WARNING : negative HOMO - LUMO gap : -0.162638
    8     dE    -2.672139e-02     1.242336e+00    -5.3052e-02      0.086 (TRAH MIcro)
    8     dE    -8.842618e-02     2.983959e-01    -1.4361e-01      0.481 (TRAH MIcro)
    8     dE    -9.939546e-02     1.644141e-01    -1.5390e-01      0.540 (TRAH MIcro)
    8     dE    -1.780894e-01     4.536188e-01    -1.7283e-01      1.030 (TRAH MIcro)
    8     dE    -6.014488e-02     4.360528e-01    -7.5605e-01      0.210 (TRAH MIcro)
    8     dE    -6.629741e-01     1.529290e+00    -5.8870e-01      1.427 (TRAH MIcro)
    8     dE    -8.657783e-02     8.528044e-02    -8.2510e-01      0.308 (TRAH MIcro)
    8     dE    -9.467590e-02     4.063419e-02    -8.2975e-01      0.337 (TRAH MIcro)
    8     dE    -9.946333e-02     3.575966e-02    -8.3136e-01      0.353 (TRAH MIcro)
    8     dE    -1.073968e-01     5.424555e-02    -8.3358e-01      0.378 (TRAH MIcro)
    8     dE    -1.143577e-01     4.189504e-02    -8.3536e-01      0.399 (TRAH MIcro)
    8     dE    -1.169574e-01     2.644681e-02    -8.3592e-01      0.406 (TRAH MIcro)
    8     dE    -1.184131e-01     2.819648e-02    -8.3613e-01      0.410 (TRAH MIcro)
    8     dE    -1.189258e-01     2.887184e-02    -8.3625e-01      0.412 (TRAH MIcro)
WARNING: 4 diagonal Hessian elements are negative!
    9      -2711.966593040454     3.243195e-01                     1.720 (TRAH MAcro)   No
WARNING : negative HOMO - LUMO gap : -0.102237
    9     dE    -1.181336e-02     2.007410e+00    -2.3503e-02      0.073 (TRAH MIcro)
    9     dE    -9.374840e-01     1.116564e+00    -4.8468e-01      1.694 (TRAH MIcro)
    9     dE    -1.261632e+00     5.248260e-01    -6.9294e-01      1.720 (TRAH MIcro)
    9     dE    -1.279108e+00     1.880817e-01    -7.0587e-01      1.720 (TRAH MIcro)
    9     dE    -1.281183e+00     7.708343e-02    -7.0701e-01      1.720 (TRAH MIcro)
    9     dE    -1.281294e+00     4.832585e-02    -7.0706e-01      1.720 (TRAH MIcro)
    9     dE    -1.281316e+00     5.194357e-02    -7.0704e-01      1.720 (TRAH MIcro)
    9     dE    -1.281346e+00     4.846079e-02    -7.0702e-01      1.720 (TRAH MIcro)
    9     dE    -1.281587e+00     8.825004e-02    -7.0720e-01      1.720 (TRAH MIcro)
    9     dE    -1.281659e+00     9.042990e-02    -7.0726e-01      1.720 (TRAH MIcro)
    9     dE    -1.282042e+00     8.025988e-02    -7.0751e-01      1.720 (TRAH MIcro)
    9     dE    -1.282198e+00     6.360198e-02    -7.0763e-01      1.720 (TRAH MIcro)
    9     dE    -1.282483e+00     9.063373e-02    -7.0792e-01      1.720 (TRAH MIcro)
    9     dE    -1.282509e+00     9.170995e-02    -7.0795e-01      1.720 (TRAH MIcro)
   10      -2712.624743098762     6.144223e-01                     1.720 (TRAH MAcro)   No
   10     dE    -1.048235e-02     1.701779e+00    -2.0940e-02      0.034 (TRAH MIcro)
   10     dE    -1.229763e-01     7.187109e-01    -2.0473e-01      0.449 (TRAH MIcro)
   10     dE    -1.497277e-01     1.277800e-01    -2.2938e-01      0.553 (TRAH MIcro)
   10     dE    -1.515250e-01     5.255503e-02    -2.3062e-01      0.560 (TRAH MIcro)
   10     dE    -1.519206e-01     2.768869e-02    -2.3090e-01      0.562 (TRAH MIcro)
   10     dE    -1.519608e-01     2.431313e-02    -2.3091e-01      0.562 (TRAH MIcro)
   10     dE    -1.519337e-01     2.563108e-02    -2.3091e-01      0.562 (TRAH MIcro)
   10     dE    -1.519786e-01     2.640777e-02    -2.3092e-01      0.562 (TRAH MIcro)
   10     dE    -1.520779e-01     2.739120e-02    -2.3092e-01      0.563 (TRAH MIcro)
   10     dE    -1.520680e-01     2.761732e-02    -2.3092e-01      0.563 (TRAH MIcro)
   10     dE    -1.522156e-01     3.282751e-02    -2.3098e-01      0.564 (TRAH MIcro)
   10     dE    -1.522475e-01     3.130704e-02    -2.3099e-01      0.564 (TRAH MIcro)
   10     dE    -1.522619e-01     3.123872e-02    -2.3100e-01      0.564 (TRAH MIcro)
   10     dE    -1.522646e-01     3.148135e-02    -2.3100e-01      0.564 (TRAH MIcro)
   11      -2712.911234663686     2.230438e-01                     2.064 (TRAH MAcro)   No
   11     dE    -1.292048e-03     5.258160e-01    -2.5837e-03      0.012 (TRAH MIcro)
   11     dE    -4.108538e-03     5.318329e-02    -8.1996e-03      0.046 (TRAH MIcro)
   11     dE    -4.379948e-03     3.534220e-02    -8.7354e-03      0.053 (TRAH MIcro)
   11     dE    -4.449334e-03     9.316868e-03    -8.8692e-03      0.058 (TRAH MIcro)
   12      -2712.916622041574     1.393323e-02                     2.477 (TRAH MAcro)   No
   12     dE    -5.322453e-06     3.022322e-02    -1.0645e-05      0.001 (TRAH MIcro)
   12     dE    -3.198987e-05     1.504423e-02    -6.3976e-05      0.008 (TRAH MIcro)
   12     dE    -4.324142e-05     9.898310e-03    -8.6467e-05      0.013 (TRAH MIcro)
   12     dE    -7.273925e-05     1.363688e-02    -1.4529e-04      0.036 (TRAH MIcro)
   12     dE    -9.820465e-05     1.210432e-02    -1.9575e-04      0.058 (TRAH MIcro)
   12     dE    -1.473916e-04     2.205891e-02    -2.9157e-04      0.105 (TRAH MIcro)
   12     dE    -1.979623e-04     1.696054e-02    -3.8666e-04      0.155 (TRAH MIcro)
   12     dE    -2.213093e-04     7.200400e-03    -4.2900e-04      0.178 (TRAH MIcro)
   12     dE    -2.272705e-04     4.822310e-03    -4.3964e-04      0.184 (TRAH MIcro)
   12     dE    -2.291532e-04     2.302796e-03    -4.4297e-04      0.186 (TRAH MIcro)
   12     dE    -2.295227e-04     8.529745e-04    -4.4362e-04      0.186 (TRAH MIcro)
 ---------------------------------
          TRAH Step control 
 ---------------------------------
  predicted energy change = -0.000230
  actual energy  change   = 0.000190
  energy change ratio     = -0.829409
  old trust radius        = 2.476695
  new trust radius        = 1.733686
  reject step?            =  1
   13      -2712.916622041574     2.230438e-01                     1.734 (TRAH MAcro)  Yes
   14      -2712.916622041574     1.393323e-02                     1.734 (TRAH MAcro)   No
   14     dE    -5.323091e-06     3.021911e-02    -1.0646e-05      0.001 (TRAH MIcro)
   14     dE    -3.199110e-05     1.504822e-02    -6.3978e-05      0.008 (TRAH MIcro)
   14     dE    -4.324348e-05     9.900347e-03    -8.6471e-05      0.013 (TRAH MIcro)
   14     dE    -7.274817e-05     1.363923e-02    -1.4531e-04      0.036 (TRAH MIcro)
   14     dE    -9.822758e-05     1.210738e-02    -1.9580e-04      0.058 (TRAH MIcro)
   14     dE    -1.474672e-04     2.207332e-02    -2.9172e-04      0.105 (TRAH MIcro)
   14     dE    -1.981261e-04     1.697503e-02    -3.8696e-04      0.155 (TRAH MIcro)
   14     dE    -2.215277e-04     7.207643e-03    -4.2939e-04      0.178 (TRAH MIcro)
   14     dE    -2.275034e-04     4.830848e-03    -4.4006e-04      0.184 (TRAH MIcro)
   14     dE    -2.293926e-04     2.310506e-03    -4.4339e-04      0.186 (TRAH MIcro)
   14     dE    -2.297643e-04     8.575257e-04    -4.4405e-04      0.187 (TRAH MIcro)
 ---------------------------------
          TRAH Step control 
 ---------------------------------
  predicted energy change = -0.000230
  actual energy  change   = 0.000192
  energy change ratio     = -0.835143
  old trust radius        = 1.733686
  new trust radius        = 1.213580
  reject step?            =  1
   15      -2712.916622041574     2.230438e-01                     1.214 (TRAH MAcro)  Yes
   16      -2712.916622041569     1.393323e-02                     1.214 (TRAH MAcro)   No
   16     dE    -5.321563e-06     3.022166e-02    -1.0643e-05      0.001 (TRAH MIcro)
   16     dE    -3.198766e-05     1.504455e-02    -6.3971e-05      0.008 (TRAH MIcro)
   16     dE    -4.323792e-05     9.898363e-03    -8.6460e-05      0.013 (TRAH MIcro)
   16     dE    -7.272425e-05     1.363203e-02    -1.4526e-04      0.036 (TRAH MIcro)
   16     dE    -9.817274e-05     1.210270e-02    -1.9569e-04      0.058 (TRAH MIcro)
   16     dE    -1.473133e-04     2.204186e-02    -2.9142e-04      0.105 (TRAH MIcro)
   16     dE    -1.978094e-04     1.693651e-02    -3.8637e-04      0.155 (TRAH MIcro)
   16     dE    -2.210988e-04     7.188541e-03    -4.2862e-04      0.178 (TRAH MIcro)
   16     dE    -2.270454e-04     4.824032e-03    -4.3923e-04      0.184 (TRAH MIcro)
   16     dE    -2.289273e-04     2.314242e-03    -4.4256e-04      0.186 (TRAH MIcro)
   16     dE    -2.292987e-04     8.623241e-04    -4.4321e-04      0.186 (TRAH MIcro)
 ---------------------------------
          TRAH Step control 
 ---------------------------------
  predicted energy change = -0.000229
  actual energy  change   = 0.000189
  energy change ratio     = -0.824188
  old trust radius        = 1.213580
  new trust radius        = 0.849506
  reject step?            =  1
   17      -2712.916622041569     2.230438e-01                     0.850 (TRAH MAcro)  Yes
   18      -2712.916622041570     1.393323e-02                     0.850 (TRAH MAcro)   No
   18     dE    -5.322641e-06     3.022075e-02    -1.0645e-05      0.001 (TRAH MIcro)
   18     dE    -3.198955e-05     1.504610e-02    -6.3975e-05      0.008 (TRAH MIcro)
   18     dE    -4.324038e-05     9.898606e-03    -8.6465e-05      0.013 (TRAH MIcro)
   18     dE    -7.273049e-05     1.363412e-02    -1.4528e-04      0.036 (TRAH MIcro)
   18     dE    -9.818314e-05     1.210127e-02    -1.9571e-04      0.058 (TRAH MIcro)
   18     dE    -1.473289e-04     2.204546e-02    -2.9145e-04      0.105 (TRAH MIcro)
   18     dE    -1.978258e-04     1.694109e-02    -3.8640e-04      0.155 (TRAH MIcro)
   18     dE    -2.211168e-04     7.189064e-03    -4.2865e-04      0.178 (TRAH MIcro)
   18     dE    -2.270600e-04     4.818194e-03    -4.3926e-04      0.184 (TRAH MIcro)
   18     dE    -2.289389e-04     2.306918e-03    -4.4258e-04      0.186 (TRAH MIcro)
   18     dE    -2.293096e-04     8.587724e-04    -4.4323e-04      0.186 (TRAH MIcro)
 ---------------------------------
          TRAH Step control 
 ---------------------------------
  predicted energy change = -0.000229
  actual energy  change   = 0.000189
  energy change ratio     = -0.824310
  old trust radius        = 0.849506
  new trust radius        = 0.594654
  reject step?            =  1
   19      -2712.916622041570     2.230438e-01                     0.595 (TRAH MAcro)  Yes
   20      -2712.916622041575     1.393323e-02                     0.595 (TRAH MAcro)   No
   20     dE    -5.321773e-06     3.022253e-02    -1.0644e-05      0.001 (TRAH MIcro)
   20     dE    -3.198791e-05     1.504425e-02    -6.3972e-05      0.008 (TRAH MIcro)
   20     dE    -4.323829e-05     9.897683e-03    -8.6461e-05      0.013 (TRAH MIcro)
   20     dE    -7.272701e-05     1.363145e-02    -1.4527e-04      0.036 (TRAH MIcro)
   20     dE    -9.818161e-05     1.210429e-02    -1.9571e-04      0.058 (TRAH MIcro)
   20     dE    -1.473448e-04     2.205386e-02    -2.9148e-04      0.105 (TRAH MIcro)
   20     dE    -1.979025e-04     1.695791e-02    -3.8654e-04      0.155 (TRAH MIcro)
   20     dE    -2.212457e-04     7.200262e-03    -4.2888e-04      0.178 (TRAH MIcro)
   20     dE    -2.272062e-04     4.824636e-03    -4.3952e-04      0.184 (TRAH MIcro)
   20     dE    -2.290890e-04     2.305909e-03    -4.4285e-04      0.186 (TRAH MIcro)
   20     dE    -2.294587e-04     8.543193e-04    -4.4350e-04      0.186 (TRAH MIcro)
 ---------------------------------
          TRAH Step control 
 ---------------------------------
  predicted energy change = -0.000229
  actual energy  change   = 0.000190
  energy change ratio     = -0.828461
  old trust radius        = 0.594654
  new trust radius        = 0.416258
  reject step?            =  1
   21      -2712.916622041575     2.230438e-01                     0.416 (TRAH MAcro)  Yes
   22      -2712.916622041570     1.393323e-02                     0.416 (TRAH MAcro)   No
   22     dE    -5.322221e-06     3.022212e-02    -1.0644e-05      0.001 (TRAH MIcro)
   22     dE    -3.198960e-05     1.504539e-02    -6.3975e-05      0.008 (TRAH MIcro)
   22     dE    -4.324231e-05     9.899350e-03    -8.6469e-05      0.013 (TRAH MIcro)
   22     dE    -7.274899e-05     1.364072e-02    -1.4531e-04      0.036 (TRAH MIcro)
   22     dE    -9.823056e-05     1.211084e-02    -1.9580e-04      0.058 (TRAH MIcro)
   22     dE    -1.474687e-04     2.207119e-02    -2.9172e-04      0.105 (TRAH MIcro)
   22     dE    -1.981176e-04     1.697339e-02    -3.8694e-04      0.155 (TRAH MIcro)
   22     dE    -2.215053e-04     7.205858e-03    -4.2936e-04      0.178 (TRAH MIcro)
   22     dE    -2.274766e-04     4.827546e-03    -4.4001e-04      0.184 (TRAH MIcro)
   22     dE    -2.293637e-04     2.307698e-03    -4.4334e-04      0.186 (TRAH MIcro)
   22     dE    -2.297349e-04     8.566133e-04    -4.4400e-04      0.187 (TRAH MIcro)
 ---------------------------------
          TRAH Step control 
 ---------------------------------
  predicted energy change = -0.000230
  actual energy  change   = 0.000192
  energy change ratio     = -0.834033
  old trust radius        = 0.416258
  new trust radius        = 0.291381
  reject step?            =  1
   23      -2712.916622041570     2.230438e-01                     0.291 (TRAH MAcro)  Yes
   24      -2712.916622041575     1.393323e-02                     0.291 (TRAH MAcro)   No
   24     dE    -5.322243e-06     3.022245e-02    -1.0644e-05      0.001 (TRAH MIcro)
   24     dE    -3.198826e-05     1.504412e-02    -6.3973e-05      0.008 (TRAH MIcro)
   24     dE    -4.323762e-05     9.896753e-03    -8.6460e-05      0.013 (TRAH MIcro)
   24     dE    -7.271686e-05     1.363173e-02    -1.4525e-04      0.036 (TRAH MIcro)
   24     dE    -9.815340e-05     1.209847e-02    -1.9565e-04      0.058 (TRAH MIcro)
   24     dE    -1.472560e-04     2.203189e-02    -2.9131e-04      0.105 (TRAH MIcro)
   24     dE    -1.976984e-04     1.692800e-02    -3.8617e-04      0.155 (TRAH MIcro)
   24     dE    -2.209558e-04     7.183757e-03    -4.2836e-04      0.178 (TRAH MIcro)
   24     dE    -2.268904e-04     4.816957e-03    -4.3895e-04      0.184 (TRAH MIcro)
   24     dE    -2.287676e-04     2.308774e-03    -4.4227e-04      0.186 (TRAH MIcro)
   24     dE    -2.291384e-04     8.608035e-04    -4.4292e-04      0.186 (TRAH MIcro)
 ---------------------------------
          TRAH Step control 
 ---------------------------------
  predicted energy change = -0.000229
  actual energy  change   = 0.000188
  energy change ratio     = -0.820972
  old trust radius        = 0.291381
  new trust radius        = 0.203966
  reject step?            =  1
   25      -2712.916622041575     2.230438e-01                     0.204 (TRAH MAcro)  Yes
   26      -2712.916622041571     1.393323e-02                     0.204 (TRAH MAcro)   No
   26     dE    -5.322144e-06     3.022087e-02    -1.0644e-05      0.001 (TRAH MIcro)
   26     dE    -3.198860e-05     1.504594e-02    -6.3973e-05      0.008 (TRAH MIcro)
   26     dE    -4.323961e-05     9.898843e-03    -8.6464e-05      0.013 (TRAH MIcro)
   26     dE    -7.273346e-05     1.363401e-02    -1.4528e-04      0.036 (TRAH MIcro)
   26     dE    -9.819617e-05     1.210502e-02    -1.9574e-04      0.058 (TRAH MIcro)
   26     dE    -1.473865e-04     2.205887e-02    -2.9156e-04      0.105 (TRAH MIcro)
   26     dE    -1.979737e-04     1.695924e-02    -3.8668e-04      0.155 (TRAH MIcro)
   26     dE    -2.213242e-04     7.200088e-03    -4.2902e-04      0.178 (TRAH MIcro)
   26     dE    -2.272864e-04     4.826280e-03    -4.3967e-04      0.184 (TRAH MIcro)
   26     dE    -2.291714e-04     2.309346e-03    -4.4300e-04      0.186 (TRAH MIcro)
   26     dE    -2.295425e-04     8.580666e-04    -4.4365e-04      0.187 (TRAH MIcro)
 ---------------------------------
          TRAH Step control 
 ---------------------------------
  predicted energy change = -0.000230
  actual energy  change   = 0.000191
  energy change ratio     = -0.830214
  old trust radius        = 0.203966
  new trust radius        = 0.142777
  reject step?            =  1
   27      -2712.916622041571     2.230438e-01                     0.143 (TRAH MAcro)  Yes
   28      -2712.916622041564     1.393323e-02                     0.143 (TRAH MAcro)   No
   28     dE    -5.322230e-06     3.022264e-02    -1.0644e-05      0.001 (TRAH MIcro)
   28     dE    -3.198932e-05     1.504504e-02    -6.3975e-05      0.008 (TRAH MIcro)
   28     dE    -4.324125e-05     9.898408e-03    -8.6467e-05      0.013 (TRAH MIcro)
   28     dE    -7.274430e-05     1.363866e-02    -1.4530e-04      0.036 (TRAH MIcro)
   28     dE    -9.821656e-05     1.210599e-02    -1.9578e-04      0.058 (TRAH MIcro)
   28     dE    -1.474269e-04     2.206577e-02    -2.9164e-04      0.105 (TRAH MIcro)
   28     dE    -1.963251e-04     1.541752e-02    -1.5606e-03      0.143 (TRAH MIcro)
   28     dE    -2.115919e-04     5.536025e-03    -3.3422e-03      0.143 (TRAH MIcro)
   28     dE    -2.146970e-04     3.534865e-03    -3.7051e-03      0.143 (TRAH MIcro)
   28     dE    -2.156153e-04     1.667614e-03    -3.8232e-03      0.143 (TRAH MIcro)
   28     dE    -2.157935e-04     6.235934e-04    -3.8455e-03      0.143 (TRAH MIcro)
   29      -2712.916661319772     2.764618e-02                     0.100 (TRAH MAcro)   No
   29     dE    -3.568583e-05     2.776825e-02    -7.1371e-05      0.003 (TRAH MIcro)
   29     dE    -6.071961e-05     9.621712e-03    -1.2143e-04      0.007 (TRAH MIcro)
   29     dE    -6.857752e-05     9.398236e-03    -1.3714e-04      0.011 (TRAH MIcro)
   29     dE    -7.836168e-05     7.784573e-03    -1.5667e-04      0.019 (TRAH MIcro)
   29     dE    -8.701942e-05     7.198264e-03    -1.7390e-04      0.028 (TRAH MIcro)
   29     dE    -9.074276e-05     3.162195e-03    -1.8129e-04      0.033 (TRAH MIcro)
   29     dE    -9.230926e-05     2.707396e-03    -1.8439e-04      0.035 (TRAH MIcro)
   30      -2712.916756952630     6.262877e-03                     0.120 (TRAH MAcro)   No
   30     dE    -1.429428e-06     1.193577e-02    -2.8589e-06      0.000 (TRAH MIcro)
   30     dE    -4.750532e-06     2.484584e-03    -9.5010e-06      0.002 (TRAH MIcro)
   30     dE    -5.256486e-06     1.797732e-03    -1.0513e-05      0.003 (TRAH MIcro)
   30     dE    -6.525604e-06     3.401000e-03    -1.3051e-05      0.007 (TRAH MIcro)
   30     dE    -7.628061e-06     2.581896e-03    -1.5254e-05      0.011 (TRAH MIcro)
   30     dE    -8.088901e-06     1.300546e-03    -1.6175e-05      0.013 (TRAH MIcro)
   30     dE    -8.318548e-06     1.343619e-03    -1.6634e-05      0.014 (TRAH MIcro)
   30     dE    -8.411696e-06     6.084515e-04    -1.6820e-05      0.014 (TRAH MIcro)
   31      -2712.916760521974     5.934397e-03                     0.120 (TRAH MAcro)   No
   31     dE    -2.043481e-06     7.959238e-03    -4.0870e-06      0.001 (TRAH MIcro)
   31     dE    -4.189088e-06     5.606859e-04    -8.3781e-06      0.002 (TRAH MIcro)
   32      -2712.916761012940     6.243825e-03                     0.084 (TRAH MAcro)   No
   32     dE    -2.316327e-06     9.522684e-03    -4.6327e-06      0.001 (TRAH MIcro)
   32     dE    -4.678503e-06     7.129152e-04    -9.3570e-06      0.002 (TRAH MIcro)
   32     dE    -4.687064e-06     1.373390e-04    -9.3741e-06      0.002 (TRAH MIcro)
 ---------------------------------
          TRAH Step control 
 ---------------------------------
  predicted energy change = -0.000005
  actual energy  change   = 0.000001
  energy change ratio     = -0.253592
  old trust radius        = 0.083953
  new trust radius        = 0.058767
  reject step?            =  1
   33      -2712.916761012940     5.934397e-03                     0.059 (TRAH MAcro)  Yes
   34      -2712.916761012937     6.243825e-03                     0.059 (TRAH MAcro)   No
   34     dE    -2.316328e-06     9.522693e-03    -4.6327e-06      0.001 (TRAH MIcro)
   34     dE    -4.678503e-06     7.129305e-04    -9.3570e-06      0.002 (TRAH MIcro)
   34     dE    -4.687064e-06     1.373383e-04    -9.3741e-06      0.002 (TRAH MIcro)
 ---------------------------------
          TRAH Step control 
 ---------------------------------
  predicted energy change = -0.000005
  actual energy  change   = 0.000001
  energy change ratio     = -0.253503
  old trust radius        = 0.058767
  new trust radius        = 0.041137
  reject step?            =  1
   35      -2712.916761012937     5.934397e-03                     0.041 (TRAH MAcro)  Yes
   36      -2712.916761012932     6.243825e-03                     0.041 (TRAH MAcro)   No
   36     dE    -2.316327e-06     9.522700e-03    -4.6327e-06      0.001 (TRAH MIcro)
   36     dE    -4.678511e-06     7.129449e-04    -9.3570e-06      0.002 (TRAH MIcro)
   36     dE    -4.687071e-06     1.373198e-04    -9.3741e-06      0.002 (TRAH MIcro)
 ---------------------------------
          TRAH Step control 
 ---------------------------------
  predicted energy change = -0.000005
  actual energy  change   = 0.000001
  energy change ratio     = -0.253063
  old trust radius        = 0.041137
  new trust radius        = 0.028796
  reject step?            =  1
   37      -2712.916761012932     5.934397e-03                     0.029 (TRAH MAcro)  Yes
   38      -2712.916761012945     6.243824e-03                     0.029 (TRAH MAcro)   No
   38     dE    -2.316327e-06     9.522677e-03    -4.6327e-06      0.001 (TRAH MIcro)
   38     dE    -4.678499e-06     7.128878e-04    -9.3570e-06      0.002 (TRAH MIcro)
   38     dE    -4.687057e-06     1.372806e-04    -9.3741e-06      0.002 (TRAH MIcro)
 ---------------------------------
          TRAH Step control 
 ---------------------------------
  predicted energy change = -0.000005
  actual energy  change   = 0.000001
  energy change ratio     = -0.253435
  old trust radius        = 0.028796
  new trust radius        = 0.020157
  reject step?            =  1
   39      -2712.916761012945     5.934397e-03                     0.020 (TRAH MAcro)  Yes
   40      -2712.916761012943     6.243824e-03                     0.020 (TRAH MAcro)   No
   40     dE    -2.316327e-06     9.522702e-03    -4.6327e-06      0.001 (TRAH MIcro)
   40     dE    -4.678507e-06     7.129298e-04    -9.3570e-06      0.002 (TRAH MIcro)
   40     dE    -4.687068e-06     1.373354e-04    -9.3741e-06      0.002 (TRAH MIcro)
 ---------------------------------
          TRAH Step control 
 ---------------------------------
  predicted energy change = -0.000005
  actual energy  change   = 0.000001
  energy change ratio     = -0.253368
  old trust radius        = 0.020157
  new trust radius        = 0.014110
  reject step?            =  1
   41      -2712.916761012943     5.934397e-03                     0.014 (TRAH MAcro)  Yes
   42      -2712.916761012936     6.243824e-03                     0.014 (TRAH MAcro)   No
   42     dE    -2.316330e-06     9.522674e-03    -4.6327e-06      0.001 (TRAH MIcro)
   42     dE    -4.678509e-06     7.129554e-04    -9.3570e-06      0.002 (TRAH MIcro)
   42     dE    -4.687072e-06     1.373906e-04    -9.3741e-06      0.002 (TRAH MIcro)
 ---------------------------------
          TRAH Step control 
 ---------------------------------
  predicted energy change = -0.000005
  actual energy  change   = 0.000001
  energy change ratio     = -0.253222
  old trust radius        = 0.014110
  new trust radius        = 0.009877
  reject step?            =  1
   43      -2712.916761012936     5.934397e-03                     0.010 (TRAH MAcro)  Yes
   44      -2712.916761012933     6.243824e-03                     0.010 (TRAH MAcro)   No
   44     dE    -2.316327e-06     9.522709e-03    -4.6327e-06      0.001 (TRAH MIcro)
   44     dE    -4.678496e-06     7.128965e-04    -9.3570e-06      0.002 (TRAH MIcro)
   44     dE    -4.687054e-06     1.372793e-04    -9.3741e-06      0.002 (TRAH MIcro)
 ---------------------------------
          TRAH Step control 
 ---------------------------------
  predicted energy change = -0.000005
  actual energy  change   = 0.000001
  energy change ratio     = -0.253492
  old trust radius        = 0.009877
  new trust radius        = 0.006914
  reject step?            =  1
   45      -2712.916761012933     5.934397e-03                     0.007 (TRAH MAcro)  Yes
   46      -2712.916761012936     6.243824e-03                     0.007 (TRAH MAcro)   No
   46     dE    -2.316327e-06     9.522701e-03    -4.6327e-06      0.001 (TRAH MIcro)
   46     dE    -4.678501e-06     7.129079e-04    -9.3570e-06      0.002 (TRAH MIcro)
   46     dE    -4.687060e-06     1.372788e-04    -9.3741e-06      0.002 (TRAH MIcro)
 ---------------------------------
          TRAH Step control 
 ---------------------------------
  predicted energy change = -0.000005
  actual energy  change   = 0.000001
  energy change ratio     = -0.253698
  old trust radius        = 0.006914
  new trust radius        = 0.004840
  reject step?            =  1
   47      -2712.916761012936     5.934397e-03                     0.005 (TRAH MAcro)  Yes
   48      -2712.916761012933     6.243824e-03                     0.005 (TRAH MAcro)   No
   48     dE    -2.316328e-06     9.522698e-03    -4.6327e-06      0.001 (TRAH MIcro)
   48     dE    -4.678499e-06     7.129278e-04    -9.3570e-06      0.002 (TRAH MIcro)
   48     dE    -4.687055e-06     1.372435e-04    -9.3741e-06      0.002 (TRAH MIcro)
 ---------------------------------
          TRAH Step control 
 ---------------------------------
  predicted energy change = -0.000005
  actual energy  change   = 0.000001
  energy change ratio     = -0.253226
  old trust radius        = 0.004840
  new trust radius        = 0.003388
  reject step?            =  1
   49      -2712.916761012933     5.934397e-03                     0.003 (TRAH MAcro)  Yes
   50      -2712.916761012935     6.243825e-03                     0.003 (TRAH MAcro)   No
   50     dE    -2.316330e-06     9.522729e-03    -4.6327e-06      0.001 (TRAH MIcro)
   50     dE    -4.678501e-06     7.129180e-04    -9.3570e-06      0.002 (TRAH MIcro)
   50     dE    -4.687061e-06     1.373356e-04    -9.3741e-06      0.002 (TRAH MIcro)
 ---------------------------------
          TRAH Step control 
 ---------------------------------
  predicted energy change = -0.000005
  actual energy  change   = 0.000001
  energy change ratio     = -0.253474
  old trust radius        = 0.003388
  new trust radius        = 0.002371
  reject step?            =  1
   51      -2712.916761012935     5.934397e-03                     0.002 (TRAH MAcro)  Yes
   52      -2712.916761012948     6.243824e-03                     0.002 (TRAH MAcro)   No
   52     dE    -2.316327e-06     9.522713e-03    -4.6327e-06      0.001 (TRAH MIcro)
   52     dE    -4.678500e-06     7.128980e-04    -9.3570e-06      0.002 (TRAH MIcro)
   52     dE    -4.687053e-06     1.371510e-04    -9.3741e-06      0.002 (TRAH MIcro)
 ---------------------------------
          TRAH Step control 
 ---------------------------------
  predicted energy change = -0.000005
  actual energy  change   = 0.000001
  energy change ratio     = -0.253479
  old trust radius        = 0.002371
  new trust radius        = 0.001660
  reject step?            =  1
   53      -2712.916761012948     5.934397e-03                     0.002 (TRAH MAcro)  Yes
   54      -2712.916761012937     6.243825e-03                     0.002 (TRAH MAcro)   No
   54     dE    -2.316333e-06     9.522593e-03    -4.6327e-06      0.001 (TRAH MIcro)
   54     dE    -4.613160e-06     2.645338e-04    -3.2953e-01      0.002 (TRAH MIcro)
   55      -2712.916761181960     5.611370e-03                     0.001 (TRAH MAcro)   No
   55     dE    -1.675940e-06     7.151806e-03    -3.3519e-06      0.001 (TRAH MIcro)
   55     dE    -3.234666e-06     8.238686e-04    -8.8215e-01      0.001 (TRAH MIcro)
   55     dE    -3.248496e-06     3.794077e-05    -8.1741e-01      0.001 (TRAH MIcro)
   56      -2712.916762663959     4.064707e-03                     0.001 (TRAH MAcro)   No
   56     dE    -8.375150e-07     4.714431e-03    -1.6750e-06      0.000 (TRAH MIcro)
   56     dE    -1.577322e-06     2.195700e-04    -3.1546e-06      0.001 (TRAH MIcro)
 ---------------------------------
          TRAH Step control 
 ---------------------------------
  predicted energy change = -0.000002
  actual energy  change   = 0.000001
  energy change ratio     = -0.419326
  old trust radius        = 0.001162
  new trust radius        = 0.000813
  reject step?            =  1
   57      -2712.916762663959     5.611370e-03                     0.001 (TRAH MAcro)  Yes
   58      -2712.916762663971     4.064707e-03                     0.001 (TRAH MAcro)   No
   58     dE    -8.375148e-07     4.714409e-03    -1.6750e-06      0.000 (TRAH MIcro)
   58     dE    -1.533880e-06     3.339781e-04    -6.0701e-01      0.001 (TRAH MIcro)
   59      -2712.916762723244     3.366421e-03                     0.001 (TRAH MAcro)   No
   59     dE    -4.622122e-07     5.073473e-03    -9.2442e-07      0.000 (TRAH MIcro)
   59     dE    -9.945320e-07     7.598950e-04    -1.3792e+00      0.001 (TRAH MIcro)
   59     dE    -1.005221e-06     2.691256e-05    -1.2508e+00      0.001 (TRAH MIcro)
   60      -2712.916763042456     2.350337e-03                     0.001 (TRAH MAcro)   No
   60     dE    -2.576278e-07     2.763702e-03    -5.1526e-07      0.000 (TRAH MIcro)
   60     dE    -4.765892e-07     1.258932e-04    -9.5318e-07      0.001 (TRAH MIcro)
 ---------------------------------
          TRAH Step control 
 ---------------------------------
  predicted energy change = -0.000000
  actual energy  change   = 0.000000
  energy change ratio     = -0.348256
  old trust radius        = 0.000569
  new trust radius        = 0.000399
  reject step?            =  1
   61      -2712.916763042456     3.366421e-03                     0.000 (TRAH MAcro)  Yes
   62      -2712.916763042455     2.350337e-03                     0.000 (TRAH MAcro)   No
   62     dE    -2.576276e-07     2.763695e-03    -5.1526e-07      0.000 (TRAH MIcro)
   62     dE    -4.599148e-07     2.406524e-04    -7.8694e-01      0.000 (TRAH MIcro)
   62     dE    -4.587903e-07     2.840251e-05    -7.8924e-01      0.000 (TRAH MIcro)
   63      -2712.916763159737     1.960402e-03                     0.000 (TRAH MAcro)   No
   63     dE    -1.773693e-07     2.474999e-03    -3.5474e-07      0.000 (TRAH MIcro)
   63     dE    -3.391411e-07     7.010121e-05    -3.3709e-01      0.000 (TRAH MIcro)
 ---------------------------------
          TRAH Step control 
 ---------------------------------
  predicted energy change = -0.000000
  actual energy  change   = 0.000000
  energy change ratio     = -0.345889
  old trust radius        = 0.000399
  new trust radius        = 0.000279
  reject step?            =  1
   64      -2712.916763159737     2.350337e-03                     0.000 (TRAH MAcro)  Yes
   65      -2712.916763159738     1.960402e-03                     0.000 (TRAH MAcro)   No
   65     dE    -1.773696e-07     2.474993e-03    -3.5474e-07      0.000 (TRAH MIcro)
   65     dE    -3.342982e-07     1.544113e-04    -5.8745e-01      0.000 (TRAH MIcro)
 ---------------------------------
          TRAH Step control 
 ---------------------------------
  predicted energy change = -0.000000
  actual energy  change   = 0.000000
  energy change ratio     = -0.201520
  old trust radius        = 0.000279
  new trust radius        = 0.000195
  reject step?            =  1
   66      -2712.916763159738     2.350337e-03                     0.000 (TRAH MAcro)  Yes
   67      -2712.916763159752     1.960402e-03                     0.000 (TRAH MAcro)   No
   67     dE    -1.773692e-07     2.474995e-03    -3.5474e-07      0.000 (TRAH MIcro)
   67     dE    -3.342981e-07     1.544128e-04    -5.8745e-01      0.000 (TRAH MIcro)
 ---------------------------------
          TRAH Step control 
 ---------------------------------
  predicted energy change = -0.000000
  actual energy  change   = 0.000000
  energy change ratio     = -0.200680
  old trust radius        = 0.000195
  new trust radius        = 0.000137
  reject step?            =  1
   68      -2712.916763159752     2.350337e-03                     0.000 (TRAH MAcro)  Yes
   69      -2712.916763159742     1.960402e-03                     0.000 (TRAH MAcro)   No
   69     dE    -1.772020e-07     2.398863e-03    -3.4383e-01      0.000 (TRAH MIcro)
   69     dE    -3.334514e-07     3.408632e-05    -5.8835e-01      0.000 (TRAH MIcro)
 ---------------------------------
          TRAH Step control 
 ---------------------------------
  predicted energy change = -0.000000
  actual energy  change   = 0.000000
  energy change ratio     = -0.209606
  old trust radius        = 0.000137
  new trust radius        = 0.000096
  reject step?            =  1
   70      -2712.916763159742     2.350337e-03                     0.000 (TRAH MAcro)  Yes
   71      -2712.916763159731     1.960402e-03                     0.000 (TRAH MAcro)   No
   71     dE    -1.772015e-07     2.398871e-03    -3.4383e-01      0.000 (TRAH MIcro)
   71     dE    -3.334499e-07     3.409990e-05    -5.8835e-01      0.000 (TRAH MIcro)
 ---------------------------------
          TRAH Step control 
 ---------------------------------
  predicted energy change = -0.000000
  actual energy  change   = 0.000000
  energy change ratio     = -0.211609
  old trust radius        = 0.000096
  new trust radius        = 0.000067
  reject step?            =  1
   72      -2712.916763159731     2.350337e-03                     0.000 (TRAH MAcro)  Yes
   73      -2712.916763159743     1.960402e-03                     0.000 (TRAH MAcro)   No
   73     dE    -1.772035e-07     2.398878e-03    -3.4383e-01      0.000 (TRAH MIcro)
   73     dE    -3.334512e-07     3.405764e-05    -5.8835e-01      0.000 (TRAH MIcro)
 ---------------------------------
          TRAH Step control 
 ---------------------------------
  predicted energy change = -0.000000
  actual energy  change   = 0.000000
  energy change ratio     = -0.211846
  old trust radius        = 0.000067
  new trust radius        = 0.000047
  reject step?            =  1
   74      -2712.916763159743     2.350337e-03                     0.000 (TRAH MAcro)  Yes
   75      -2712.916763159734     1.960402e-03                     0.000 (TRAH MAcro)   No
   75     dE    -1.772014e-07     2.398856e-03    -3.4383e-01      0.000 (TRAH MIcro)
   75     dE    -3.334511e-07     3.409671e-05    -5.8835e-01      0.000 (TRAH MIcro)
 ---------------------------------
          TRAH Step control 
 ---------------------------------
  predicted energy change = -0.000000
  actual energy  change   = 0.000000
  energy change ratio     = -0.212144
  old trust radius        = 0.000047
  new trust radius        = 0.000033
  reject step?            =  1
   76      -2712.916763159734     2.350337e-03                     0.000 (TRAH MAcro)  Yes
   77      -2712.916763159729     1.960402e-03                     0.000 (TRAH MAcro)   No
   77     dE    -1.772017e-07     2.398858e-03    -3.4383e-01      0.000 (TRAH MIcro)
   77     dE    -3.334500e-07     3.408382e-05    -5.8835e-01      0.000 (TRAH MIcro)
 ---------------------------------
          TRAH Step control 
 ---------------------------------
  predicted energy change = -0.000000
  actual energy  change   = 0.000000
  energy change ratio     = -0.209399
  old trust radius        = 0.000033
  new trust radius        = 0.000023
  reject step?            =  1
   78      -2712.916763159729     2.350337e-03                     0.000 (TRAH MAcro)  Yes
   79      -2712.916763159729     1.960402e-03                     0.000 (TRAH MAcro)   No
   79     dE    -1.772013e-07     2.398856e-03    -3.4383e-01      0.000 (TRAH MIcro)
   79     dE    -3.334502e-07     3.410904e-05    -5.8835e-01      0.000 (TRAH MIcro)
 ---------------------------------
          TRAH Step control 
 ---------------------------------
  predicted energy change = -0.000000
  actual energy  change   = 0.000000
  energy change ratio     = -0.211683
  old trust radius        = 0.000023
  new trust radius        = 0.000016
  reject step?            =  1
   80      -2712.916763159729     2.350337e-03                     0.000 (TRAH MAcro)  Yes
   81      -2712.916763159734     1.960402e-03                     0.000 (TRAH MAcro)   No
   81     dE    -1.772018e-07     2.398864e-03    -3.4383e-01      0.000 (TRAH MIcro)
   81     dE    -3.334518e-07     3.408832e-05    -5.8835e-01      0.000 (TRAH MIcro)
 ---------------------------------
          TRAH Step control 
 ---------------------------------
  predicted energy change = -0.000000
  actual energy  change   = 0.000000
  energy change ratio     = -0.210263
  old trust radius        = 0.000016
  new trust radius        = 0.000011
  reject step?            =  1
   82      -2712.916763159734     2.350337e-03                     0.000 (TRAH MAcro)  Yes
   83      -2712.916763159744     1.960402e-03                     0.000 (TRAH MAcro)   No
   83     dE    -1.772015e-07     2.398860e-03    -3.4383e-01      0.000 (TRAH MIcro)
   83     dE    -3.334506e-07     3.409769e-05    -5.8835e-01      0.000 (TRAH MIcro)
 ---------------------------------
          TRAH Step control 
 ---------------------------------
  predicted energy change = -0.000000
  actual energy  change   = 0.000000
  energy change ratio     = -0.209683
  old trust radius        = 0.000011
  new trust radius        = 0.000008
  reject step?            =  1
   84      -2712.916763159744     2.350337e-03                     0.000 (TRAH MAcro)  Yes
   85      -2712.916763159748     1.960402e-03                     0.000 (TRAH MAcro)   No
   85     dE    -1.772049e-07     2.398824e-03    -3.4383e-01      0.000 (TRAH MIcro)
   85     dE    -3.334518e-07     3.403818e-05    -5.8835e-01      0.000 (TRAH MIcro)
 ---------------------------------
          TRAH Step control 
 ---------------------------------
  predicted energy change = -0.000000
  actual energy  change   = 0.000000
  energy change ratio     = -0.209630
  old trust radius        = 0.000008
  new trust radius        = 0.000006
  reject step?            =  1
   86      -2712.916763159748     2.350337e-03                     0.000 (TRAH MAcro)  Yes
   87      -2712.916763159742     1.960402e-03                     0.000 (TRAH MAcro)   No
   87     dE    -1.772026e-07     2.398904e-03    -3.4383e-01      0.000 (TRAH MIcro)
   87     dE    -3.334519e-07     3.408427e-05    -5.8835e-01      0.000 (TRAH MIcro)
 ---------------------------------
          TRAH Step control 
 ---------------------------------
  predicted energy change = -0.000000
  actual energy  change   = 0.000000
  energy change ratio     = -0.209506
  old trust radius        = 0.000006
  new trust radius        = 0.000004
  reject step?            =  1
   88      -2712.916763159742     2.350337e-03                     0.000 (TRAH MAcro)  Yes
   89      -2712.916763159735     1.960402e-03                     0.000 (TRAH MAcro)   No
   89     dE    -1.772017e-07     2.398862e-03    -3.4383e-01      0.000 (TRAH MIcro)
   89     dE    -3.334506e-07     3.408452e-05    -5.8835e-01      0.000 (TRAH MIcro)
 ---------------------------------
          TRAH Step control 
 ---------------------------------
  predicted energy change = -0.000000
  actual energy  change   = 0.000000
  energy change ratio     = -0.209624
  old trust radius        = 0.000004
  new trust radius        = 0.000003
  reject step?            =  1
   90      -2712.916763159735     2.350337e-03                     0.000 (TRAH MAcro)  Yes
   91      -2712.916763159734     1.960402e-03                     0.000 (TRAH MAcro)   No
   91     dE    -1.772015e-07     2.398858e-03    -3.4383e-01      0.000 (TRAH MIcro)
   91     dE    -3.334503e-07     3.409703e-05    -5.8835e-01      0.000 (TRAH MIcro)
 ---------------------------------
          TRAH Step control 
 ---------------------------------
  predicted energy change = -0.000000
  actual energy  change   = 0.000000
  energy change ratio     = -0.209781
  old trust radius        = 0.000003
  new trust radius        = 0.000002
  reject step?            =  1
   92      -2712.916763159734     2.350337e-03                     0.000 (TRAH MAcro)  Yes
   93      -2712.916763159740     1.960402e-03                     0.000 (TRAH MAcro)   No
